 vasp.6.1.1 19Jun20 (build Nov 30 2020 11:51:22) complex

 executed on             LinuxIFC date 2021.03.24  01:59:05

 INCAR:
 POTCAR:    PAW_PBE Ni 02Aug2007
 POTCAR:    PAW_PBE Ge 05Jan2001
 POTCAR:    PAW_PBE Mn 06Sep2000
 POTCAR:    PAW_PBE Fe 06Sep2000
 POTCAR:    PAW_PBE Ni 02Aug2007
   VRHFIN =Ni:

   TITEL  = PAW_PBE Ni 02Aug2007
   POMASS =   58.690; ZVAL   =   10.000    mass and valenz
   ENMAX  =  269.532; ENMIN  =  202.149 eV

   TITEL  = PAW_PBE Ge 05Jan2001
   POMASS =   72.610; ZVAL   =    4.000    mass and valenz
   ENMAX  =  173.807; ENMIN  =  130.355 eV

   TITEL  = PAW_PBE Mn 06Sep2000
   POMASS =   54.938; ZVAL   =    7.000    mass and valenz
   ENMAX  =  269.864; ENMIN  =  202.398 eV

   TITEL  = PAW_PBE Fe 06Sep2000
   POMASS =   55.847; ZVAL   =    8.000    mass and valenz
   ENMAX  =  267.882; ENMIN  =  200.911 eV

  PAW_PBE Ni 02Aug2007                  :
  PAW_PBE Ge 05Jan2001                  :
  PAW_PBE Mn 06Sep2000                  :
  PAW_PBE Fe 06Sep2000                  :

 POSCAR: MnFeNiGe_hex
  positions in direct lattice
  velocities in cartesian coordinates
 exchange correlation table for  LEXCH =        8
   RHO(1)=    0.500       N(1)  =     2000
   RHO(2)=  100.500       N(2)  =     4000

 ion  position               nearest neighbor table
   1  0.667  0.833  0.375-  27 2.36  29 2.36  23 2.36  17 2.63  26 2.63  36 2.70  45 2.70  38 2.70
                            46 2.70  43 2.70  48 2.70
   2  0.333  0.167  0.625-  28 2.36  30 2.36  24 2.36  25 2.63  18 2.63  39 2.70  44 2.70  46 2.70
                            48 2.70  37 2.70  45 2.70
   3  0.167  0.833  0.375-  25 2.36  23 2.36  29 2.36  28 2.63  19 2.63  40 2.70  47 2.70  43 2.70
                            48 2.70  38 2.70  46 2.70
   4  0.833  0.167  0.625-  26 2.36  24 2.36  30 2.36  27 2.63  20 2.63  39 2.70  44 2.70  46 2.70
                            48 2.70  47 2.70  41 2.70
   5  0.167  0.333  0.375-  29 2.36  27 2.36  25 2.36  24 2.63  21 2.63  43 2.70  48 2.70  47 2.70
                            40 2.70  36 2.70  45 2.70
   6  0.833  0.667  0.625-  30 2.36  28 2.36  26 2.36  23 2.63  22 2.63  37 2.70  41 2.70  45 2.70
                            47 2.70  44 2.70  48 2.70
   7  0.833  0.667  0.125-  31 2.36  19 2.36  17 2.36  23 2.63  22 2.63  33 2.70  35 2.70  36 2.70
                            40 2.70  42 2.70  43 2.70
   8  0.167  0.333  0.875-  18 2.36  32 2.36  20 2.36  24 2.63  21 2.63  42 2.70  44 2.70  35 2.70
                            41 2.70  37 2.70  33 2.70
   9  0.333  0.167  0.125-  19 2.36  31 2.36  21 2.36  25 2.63  18 2.63  34 2.70  38 2.70  42 2.70
                            43 2.70  36 2.70  33 2.70
  10  0.667  0.833  0.875-  20 2.36  32 2.36  22 2.36  26 2.63  17 2.63  33 2.70  37 2.70  34 2.70
                            39 2.70  42 2.70  44 2.70
  11  0.833  0.167  0.125-  17 2.36  21 2.36  31 2.36  27 2.63  20 2.63  34 2.70  38 2.70  42 2.70
                            43 2.70  35 2.70  40 2.70
  12  0.167  0.833  0.875-  18 2.36  22 2.36  32 2.36  28 2.63  19 2.63  35 2.70  41 2.70  42 2.70
                            44 2.70  39 2.70  34 2.70
  13  0.333  0.667  0.125-  21 2.36  17 2.36  19 2.36  29 2.63  32 2.63  33 2.70  35 2.70  36 2.70
                            40 2.70  38 2.70  34 2.70
  14  0.667  0.333  0.875-  22 2.36  20 2.36  18 2.36  30 2.63  31 2.63  34 2.70  39 2.70  37 2.70
                            33 2.70  35 2.70  41 2.70
  15  0.667  0.333  0.375-  23 2.36  25 2.36  27 2.36  30 2.63  31 2.63  38 2.70  46 2.70  45 2.70
                            36 2.70  40 2.70  47 2.70
  16  0.333  0.667  0.625-  24 2.36  26 2.36  28 2.36  29 2.63  32 2.63  37 2.70  41 2.70  45 2.70
                            47 2.70  46 2.70  39 2.70
  17  0.667  0.833  0.125-  11 2.36  13 2.36   7 2.36   1 2.63  10 2.63  33 2.70  36 2.70  34 2.70
                            38 2.70  42 2.70  43 2.70
  18  0.333  0.167  0.875-   8 2.36  12 2.36  14 2.36   2 2.63   9 2.63  42 2.70  44 2.70  33 2.70
                            37 2.70  34 2.70  39 2.70
  19  0.167  0.833  0.125-   9 2.36   7 2.36  13 2.36  12 2.63   3 2.63  35 2.70  40 2.70  42 2.70
                            43 2.70  38 2.70  34 2.70
  20  0.833  0.167  0.875-  10 2.36   8 2.36  14 2.36  11 2.63   4 2.63  34 2.70  39 2.70  42 2.70
                            44 2.70  35 2.70  41 2.70
  21  0.167  0.333  0.125-  13 2.36  11 2.36   9 2.36   8 2.63   5 2.63  42 2.70  43 2.70  35 2.70
                            40 2.70  36 2.70  33 2.70
  22  0.833  0.667  0.875-  14 2.36  12 2.36  10 2.36   7 2.63   6 2.63  33 2.70  35 2.70  37 2.70
                            41 2.70  42 2.70  44 2.70
  23  0.833  0.667  0.375-  15 2.36   3 2.36   1 2.36   7 2.63   6 2.63  36 2.70  40 2.70  45 2.70
                            47 2.70  43 2.70  48 2.70
  24  0.167  0.333  0.625-  16 2.36   4 2.36   2 2.36   8 2.63   5 2.63  44 2.70  48 2.70  47 2.70
                            41 2.70  37 2.70  45 2.70
  25  0.333  0.167  0.375-   3 2.36  15 2.36   5 2.36   9 2.63   2 2.63  38 2.70  43 2.70  46 2.70
                            48 2.70  36 2.70  45 2.70
  26  0.667  0.833  0.625-   4 2.36  16 2.36   6 2.36  10 2.63   1 2.63  37 2.70  45 2.70  39 2.70
                            46 2.70  44 2.70  48 2.70
  27  0.833  0.167  0.375-   1 2.36   5 2.36  15 2.36  11 2.63   4 2.63  38 2.70  43 2.70  46 2.70
                            48 2.70  47 2.70  40 2.70
  28  0.167  0.833  0.625-   2 2.36   6 2.36  16 2.36  12 2.63   3 2.63  41 2.70  47 2.70  44 2.70
                            48 2.70  39 2.70  46 2.70
  29  0.333  0.667  0.375-   5 2.36   1 2.36   3 2.36  13 2.63  16 2.63  36 2.70  40 2.70  45 2.70
                            47 2.70  46 2.70  38 2.70
  30  0.667  0.333  0.625-   6 2.36   2 2.36   4 2.36  14 2.63  15 2.63  39 2.70  46 2.70  45 2.70
                            37 2.70  41 2.70  47 2.70
  31  0.667  0.333  0.125-   7 2.36   9 2.36  11 2.36  14 2.63  15 2.63  34 2.70  38 2.70  36 2.70
                            33 2.70  35 2.70  40 2.70
  32  0.333  0.667  0.875-   8 2.36  10 2.36  12 2.36  13 2.63  16 2.63  33 2.70  35 2.70  37 2.70
                            41 2.70  39 2.70  34 2.70
  33  0.500  0.500  0.000-  36 2.63  37 2.63  10 2.70  17 2.70  22 2.70  32 2.70  13 2.70   7 2.70
                            31 2.70  14 2.70   9 2.70  18 2.70  21 2.70   8 2.70
  34  0.500  0.000  0.000-  38 2.63  39 2.63  14 2.70  31 2.70  11 2.70   9 2.70  20 2.70  10 2.70
                            17 2.70  13 2.70  32 2.70  19 2.70  12 2.70  18 2.70
  35  0.000  0.500  0.000-  40 2.63  41 2.63  12 2.70  19 2.70  22 2.70  32 2.70  13 2.70   7 2.70
                             8 2.70  21 2.70  20 2.70  11 2.70  31 2.70  14 2.70
  36  0.500  0.500  0.250-  33 2.63  45 2.63   1 2.70  17 2.70  23 2.70  29 2.70  13 2.70   7 2.70
                            15 2.70  31 2.70   9 2.70  25 2.70   5 2.70  21 2.70
  37  0.500  0.500  0.750-  33 2.63  45 2.63  10 2.70  26 2.70   6 2.70  32 2.70  16 2.70  22 2.70
                            30 2.70  14 2.70   2 2.70  18 2.70  24 2.70   8 2.70
  38  0.500  0.000  0.250-  34 2.63  46 2.63  15 2.70  31 2.70  27 2.70  11 2.70   9 2.70  25 2.70
                            17 2.70   1 2.70  29 2.70  13 2.70   3 2.70  19 2.70
  39  0.500  0.000  0.750-  34 2.63  46 2.63  14 2.70  30 2.70   4 2.70   2 2.70  20 2.70  26 2.70
                            10 2.70  16 2.70  32 2.70  12 2.70  28 2.70  18 2.70
  40  0.000  0.500  0.250-  35 2.63  47 2.63   3 2.70  19 2.70  23 2.70  29 2.70  13 2.70   7 2.70
                             5 2.70  21 2.70  27 2.70  11 2.70  15 2.70  31 2.70
  41  0.000  0.500  0.750-  35 2.63  47 2.63  12 2.70  28 2.70   6 2.70  32 2.70  16 2.70  22 2.70
                             8 2.70  24 2.70   4 2.70  20 2.70  30 2.70  14 2.70
  42  0.000  0.000  0.000-  43 2.63  44 2.63  18 2.70   8 2.70  21 2.70  11 2.70   9 2.70  20 2.70
                            12 2.70  19 2.70   7 2.70  22 2.70  17 2.70  10 2.70
  43  0.000  0.000  0.250-  42 2.63  48 2.63   5 2.70  21 2.70  25 2.70  27 2.70  11 2.70   9 2.70
                            19 2.70   3 2.70   7 2.70  23 2.70  17 2.70   1 2.70
  44  0.000  0.000  0.750-  42 2.63  48 2.63  18 2.70   8 2.70  24 2.70   2 2.70   4 2.70  20 2.70
                            12 2.70  28 2.70   6 2.70  22 2.70  26 2.70  10 2.70
  45  0.500  0.500  0.500-  36 2.63  37 2.63   1 2.70  26 2.70   6 2.70  29 2.70  16 2.70  23 2.70
                            15 2.70  30 2.70  25 2.70   2 2.70   5 2.70  24 2.70
  46  0.500  0.000  0.500-  38 2.63  39 2.63  15 2.70  30 2.70  27 2.70   4 2.70   2 2.70  25 2.70
                             1 2.70  26 2.70  29 2.70  16 2.70   3 2.70  28 2.70
  47  0.000  0.500  0.500-  40 2.63  41 2.63   3 2.70  28 2.70   6 2.70  29 2.70  16 2.70  23 2.70
                             5 2.70  24 2.70   4 2.70  27 2.70  15 2.70  30 2.70
  48  0.000  0.000  0.500-  43 2.63  44 2.63   5 2.70  24 2.70  25 2.70  27 2.70   2 2.70   4 2.70
                             3 2.70  28 2.70   6 2.70  23 2.70   1 2.70  26 2.70

  LATTYP: Found a hexagonal cell.
 ALAT       =     8.1731198103
 C/A-ratio  =     1.2850434344

  Lattice vectors:

 A1 = (   8.1731198104,   0.0000000000,   0.0000000000)
 A2 = (  -4.0865599052,   7.0781293839,   0.0000000000)
 A3 = (   0.0000000000,   0.0000000000,  10.5028139505)

Analysis of symmetry for initial positions (statically):
 Subroutine PRICEL returns:
 Original cell was already a primitive cell.

 Routine SETGRP: Setting up the symmetry group for a
 hexagonal supercell.

 Subroutine GETGRP returns: Found 12 space group operations
 (whereof 12 operations were pure point group operations)
 out of a pool of 24 trial point group operations.

The static configuration has the point symmetry D_3d.

Analysis of symmetry for dynamics (positions and initial velocities):
 Subroutine PRICEL returns:
 Original cell was already a primitive cell.

[...]

The dynamic configuration has the point symmetry D_3d.

Analysis of structural, dynamic, and magnetic symmetry:
 Subroutine PRICEL returns:
 Original cell was already a primitive cell.

 Routine SETGRP: Setting up the symmetry group for a
 hexagonal supercell.

 Subroutine GETGRP returns: Found 12 space group operations
 (whereof 12 operations were pure point group operations)
 out of a pool of 24 trial point group operations.

The magnetic configuration has the point symmetry D_3d.

 Subroutine INISYM returns: Found 12 space group operations
 (whereof 12 operations are pure point group operations),
 and found     1 'primitive' translations

                                     Primitive cell

  volume of cell :     607.5920

  direct lattice vectors                    reciprocal lattice vectors
     8.173119810  0.000000000  0.000000000     0.122352299  0.070640133  0.000000000
    -4.086559905  7.078129384  0.000000000     0.000000000  0.141280266  0.000000000
     0.000000000  0.000000000 10.502813951     0.000000000  0.000000000  0.095212579

  length of vectors
     8.173119810  8.173119810 10.502813951     0.141280266  0.141280266  0.095212579

  position of ions in fractional coordinates (direct lattice)
[...]

# of ion       s       p       d       tot
    1        0.470   0.522   8.452   9.444
    2        0.470   0.522   8.452   9.444
    3        0.470   0.522   8.452   9.444
    4        0.470   0.522   8.452   9.444
    5        0.470   0.522   8.452   9.444
    6        0.470   0.522   8.452   9.444
    7        0.471   0.525   8.452   9.448
    8        0.471   0.525   8.452   9.448
    9        0.471   0.525   8.452   9.448
   10        0.471   0.525   8.452   9.448
   11        0.471   0.525   8.452   9.448
   12        0.471   0.525   8.452   9.448
   13        0.471   0.526   8.451   9.448
   14        0.471   0.526   8.451   9.448
   15        0.472   0.524   8.453   9.449
   16        0.472   0.524   8.453   9.449
   17        1.085   1.270   0.125   2.480
   18        1.085   1.270   0.125   2.480
   19        1.085   1.270   0.125   2.480
   20        1.085   1.270   0.125   2.480
   21        1.085   1.270   0.125   2.480
   22        1.085   1.270   0.125   2.480
   23        1.085   1.266   0.125   2.476
   24        1.085   1.266   0.125   2.476
   25        1.085   1.266   0.125   2.476
   26        1.085   1.266   0.125   2.476
   27        1.085   1.266   0.125   2.476
   28        1.085   1.266   0.125   2.476
   29        1.086   1.269   0.125   2.480
   30        1.086   1.269   0.125   2.480
   31        1.085   1.272   0.125   2.481
   32        1.085   1.272   0.125   2.481
   33        0.282   0.325   5.088   5.695
   34        0.282   0.325   5.088   5.695
   35        0.282   0.325   5.088   5.695
   36        0.282   0.325   5.089   5.696
   37        0.282   0.325   5.089   5.696
   38        0.282   0.325   5.089   5.696
   39        0.282   0.325   5.089   5.696
   40        0.282   0.325   5.089   5.696
   41        0.282   0.325   5.089   5.696
   42        0.281   0.324   5.098   5.702
   43        0.281   0.327   5.075   5.683
   44        0.281   0.327   5.075   5.683
   45        0.282   0.326   5.086   5.695
   46        0.282   0.326   5.086   5.695
   47        0.282   0.326   5.086   5.695
   48        0.357   0.424   6.273   7.054
tot         29.473  33.992 219.807 283.272

 magnetization (x)

[...]

  FORCE on cell =-STRESS in cart. coord.  units (eV):
  Direction    XX          YY          ZZ          XY          YZ          ZX
  Alpha Z  1580.70776  1580.70776  1580.70776
  Ewald   -7282.42840 -7282.42840 -7938.26598    -0.00001     0.00000     0.00000
  Hartree  2128.57712  2128.57712  1997.22675    -0.00000     0.00000    -0.00000
  E(xc)   -1655.32947 -1655.32950 -1658.91590    -0.00003    -0.00000     0.00000
  Local    -689.21565  -689.21652   -20.71944    -0.00074    -0.00000     0.00000
  n-local  -227.63892  -230.29879  -266.94083     1.15953    -0.58220    -0.56912
  augment  3299.32610  3299.32673  3371.47461     0.00055     0.00000    -0.00000
  Kinetic  2847.57594  2846.55547  2935.52407     0.80706    -0.03762     1.05901
  Fock        0.00000     0.00000     0.00000     0.00000     0.00000     0.00000
  Total      -0.26582    -0.26582     0.09105     0.00000    -0.00000     0.00000
  in kB      -0.70094    -0.70094     0.24008     0.00000    -0.00000     0.00000

 VOLUME and BASIS-vectors are now :
  energy-cutoff  :      450.00
  volume of cell :      607.59
      direct lattice vectors                 reciprocal lattice vectors
     8.173119810  0.000000000  0.000000000     0.122352299  0.070640133  0.000000000
    -4.086559905  7.078129384  0.000000000     0.000000000  0.141280266  0.000000000
     0.000000000  0.000000000 10.502813951     0.000000000  0.000000000  0.095212579

  length of vectors
     8.173119810  8.173119810 10.502813951     0.141280266  0.141280266  0.095212579

 FORCES acting on ions
    electron-ion (+dipol)            ewald-force                    non-local-force                 convergence-correction
   0.121E+02 0.698E+01 0.989E+01   -.121E+02 -.699E+01 -.986E+01   0.441E-01 0.255E-01 -.842E-02   -.200E-01 -.115E-01 -.106E-01
   -.121E+02 -.698E+01 -.989E+01   0.121E+02 0.699E+01 0.986E+01   -.441E-01 -.255E-01 0.842E-02   0.200E-01 0.115E-01 0.106E-01
   -.121E+02 0.698E+01 0.989E+01   0.121E+02 -.699E+01 -.986E+01   -.441E-01 0.255E-01 -.842E-02   0.200E-01 -.115E-01 -.106E-01
   0.121E+02 -.698E+01 -.989E+01   -.121E+02 0.699E+01 0.986E+01   0.441E-01 -.255E-01 0.842E-02   -.200E-01 0.115E-01 0.106E-01
   0.530E-06 -.140E+02 0.989E+01   0.105E-05 0.140E+02 -.986E+01   -.867E-18 -.509E-01 -.842E-02   0.185E-07 0.230E-01 -.106E-01
   -.827E-06 0.140E+02 -.989E+01   -.634E-06 -.140E+02 0.986E+01   0.000E+00 0.509E-01 0.842E-02   -.183E-07 -.230E-01 0.106E-01
   -.741E-06 0.178E+01 0.420E+01   -.634E-06 -.179E+01 -.423E+01   -.141E-17 0.270E-01 0.310E-01   -.643E-08 -.282E-02 -.623E-02
   -.109E-05 -.178E+01 -.420E+01   -.892E-05 0.179E+01 0.423E+01   0.108E-18 -.270E-01 -.310E-01   0.661E-08 0.282E-02 0.623E-02
   -.154E+01 -.892E+00 0.420E+01   0.155E+01 0.897E+00 -.423E+01   -.234E-01 -.135E-01 0.310E-01   0.244E-02 0.141E-02 -.623E-02
   0.154E+01 0.892E+00 -.420E+01   -.155E+01 -.897E+00 0.423E+01   0.234E-01 0.135E-01 -.310E-01   -.244E-02 -.141E-02 0.623E-02
   0.154E+01 -.892E+00 0.420E+01   -.155E+01 0.897E+00 -.423E+01   0.234E-01 -.135E-01 0.310E-01   -.244E-02 0.141E-02 -.623E-02
   -.154E+01 0.892E+00 -.420E+01   0.155E+01 -.897E+00 0.423E+01   -.234E-01 0.135E-01 -.310E-01   0.244E-02 -.141E-02 0.623E-02
   -.739E-06 0.238E-06 0.282E+01   -.634E-06 0.209E-05 -.279E+01   0.217E-18 0.000E+00 -.194E-01   0.363E-08 -.296E-07 -.306E-02
   -.109E-05 -.199E-05 -.282E+01   -.891E-05 -.924E-05 0.279E+01   0.217E-18 0.000E+00 0.194E-01   -.345E-08 0.210E-07 0.306E-02
   0.405E-06 -.620E-06 0.348E+01   0.109E-05 -.121E-06 -.351E+01   -.542E-18 -.542E-18 0.626E-01   0.176E-08 0.842E-08 -.149E-03
   -.733E-06 0.231E-06 -.348E+01   -.634E-06 0.210E-05 0.351E+01   0.542E-19 0.542E-18 -.626E-01   -.144E-08 -.267E-07 0.149E-03
   0.621E+00 0.358E+00 0.167E+01   -.622E+00 -.359E+00 -.169E+01   0.107E-01 0.619E-02 0.268E-02   -.153E-02 -.884E-03 -.213E-02
   -.621E+00 -.358E+00 -.167E+01   0.622E+00 0.359E+00 0.169E+01   -.107E-01 -.619E-02 -.268E-02   0.153E-02 0.884E-03 0.213E-02
   -.621E+00 0.358E+00 0.167E+01   0.622E+00 -.359E+00 -.169E+01   -.107E-01 0.619E-02 0.268E-02   0.153E-02 -.884E-03 -.213E-02
   0.621E+00 -.358E+00 -.167E+01   -.622E+00 0.359E+00 0.169E+01   0.107E-01 -.619E-02 -.268E-02   -.153E-02 0.884E-03 0.213E-02
   0.150E-05 -.717E+00 0.167E+01   0.357E-06 0.718E+00 -.169E+01   -.173E-17 -.124E-01 0.268E-02   0.867E-09 0.177E-02 -.213E-02
   -.147E-05 0.717E+00 -.167E+01   -.615E-06 -.718E+00 0.169E+01   0.000E+00 0.124E-01 -.268E-02   -.749E-09 -.177E-02 0.213E-02
   -.145E-05 0.557E+01 0.393E+01   -.422E-06 -.559E+01 -.394E+01   0.173E-17 0.125E+00 0.890E-01   -.302E-08 -.867E-02 -.388E-02
   0.151E-05 -.557E+01 -.393E+01   0.349E-06 0.559E+01 0.394E+01   -.347E-17 -.125E+00 -.890E-01   0.307E-08 0.867E-02 0.388E-02
   -.482E+01 -.278E+01 0.393E+01   0.484E+01 0.280E+01 -.394E+01   -.108E+00 -.624E-01 0.890E-01   0.751E-02 0.434E-02 -.388E-02
   0.482E+01 0.278E+01 -.393E+01   -.484E+01 -.280E+01 0.394E+01   0.108E+00 0.624E-01 -.890E-01   -.751E-02 -.434E-02 0.388E-02
   0.482E+01 -.278E+01 0.393E+01   -.484E+01 0.280E+01 -.394E+01   0.108E+00 -.624E-01 0.890E-01   -.751E-02 0.434E-02 -.388E-02
   -.482E+01 0.278E+01 -.393E+01   0.484E+01 -.280E+01 0.394E+01   -.108E+00 0.624E-01 -.890E-01   0.751E-02 -.434E-02 0.388E-02
   -.144E-05 0.957E-06 0.140E+01   -.422E-06 0.628E-06 -.141E+01   -.607E-17 0.173E-17 0.653E-02   -.849E-09 -.579E-08 -.652E-03
   0.149E-05 -.856E-06 -.140E+01   0.362E-06 -.590E-06 0.141E+01   0.607E-17 -.173E-17 -.653E-02   0.921E-09 0.410E-08 0.652E-03
   0.150E-05 -.854E-06 0.114E+01   0.359E-06 -.592E-06 -.112E+01   0.173E-17 0.000E+00 0.109E-01   -.392E-09 0.486E-08 -.180E-02
   -.148E-05 0.112E-05 -.114E+01   -.615E-06 0.171E-05 0.112E+01   -.173E-17 0.000E+00 -.109E-01   0.514E-09 -.123E-07 0.180E-02
   0.562E-06 0.284E-06 0.199E-10   0.223E-05 -.708E-06 -.145E-12   -.662E-23 0.000E+00 0.000E+00   -.200E-07 -.124E-10 0.208E-14
   -.298E-06 0.780E-06 -.534E-06   -.348E-05 0.259E-05 -.353E-05   0.000E+00 0.000E+00 0.000E+00   0.974E-10 -.116E-07 0.544E-08
   -.264E-08 0.283E-06 -.336E-10   -.151E-05 -.708E-06 0.731E-14   -.827E-24 0.000E+00 0.000E+00   0.197E-07 -.782E-11 0.455E-11
   0.109E-01 -.631E-02 0.350E+01   -.823E-07 -.708E-06 -.350E+01   -.415E-02 0.240E-02 0.152E-01   -.893E-03 0.515E-03 -.253E-02
   -.109E-01 0.631E-02 -.350E+01   0.223E-05 -.708E-06 0.350E+01   0.415E-02 -.240E-02 -.152E-01   0.893E-03 -.515E-03 0.253E-02
   0.153E-06 0.126E-01 0.350E+01   -.477E-06 -.480E-06 -.350E+01   0.108E-18 -.479E-02 0.152E-01   0.162E-08 -.103E-02 -.253E-02
   -.298E-06 -.126E-01 -.350E+01   -.348E-05 0.259E-05 0.350E+01   0.000E+00 0.479E-02 -.152E-01   -.143E-08 0.103E-02 0.253E-02
   -.109E-01 -.631E-02 0.350E+01   -.668E-06 -.708E-06 -.350E+01   0.415E-02 0.240E-02 0.152E-01   0.893E-03 0.515E-03 -.253E-02
   0.109E-01 0.631E-02 -.350E+01   -.151E-05 -.708E-06 0.350E+01   -.415E-02 -.240E-02 -.152E-01   -.893E-03 -.515E-03 0.253E-02
   -.298E-06 -.213E-06 0.534E-06   -.348E-05 -.401E-05 0.353E-05   0.000E+00 0.000E+00 0.000E+00   0.101E-09 0.116E-07 -.544E-08
   0.150E-06 0.242E-06 0.139E+02   -.477E-06 -.936E-06 -.140E+02   0.813E-19 0.000E+00 0.288E+00   -.245E-09 0.731E-08 -.193E-01
   -.295E-06 -.205E-06 -.139E+02   -.348E-05 -.401E-05 0.140E+02   -.190E-18 0.000E+00 -.288E+00   0.432E-09 0.114E-07 0.193E-01
   0.213E-06 0.284E-06 -.333E-11   -.823E-07 -.708E-06 -.568E-13   0.827E-24 0.000E+00 0.000E+00   -.123E-07 -.461E-11 -.252E-12
   0.154E-06 0.318E-06 0.774E-07   -.477E-06 -.480E-06 0.515E-06   0.331E-23 0.000E+00 0.000E+00   0.852E-10 -.713E-08 -.492E-08
   0.125E-06 0.284E-06 0.562E-11   -.668E-06 -.708E-06 -.533E-13   -.827E-24 0.000E+00 0.000E+00   0.121E-07 -.570E-11 -.294E-11
   0.175E-06 0.285E-06 -.885E-07   -.545E-06 -.107E-05 -.588E-06   -.331E-23 0.000E+00 0.000E+00   0.103E-09 0.831E-08 0.579E-08
   -.561E-05 0.162E-05 -.803E-07   -.734E-13 -.842E-13 0.124E-12   -.149E-16 0.360E-16 0.000E+00   -.716E-09 0.162E-08 0.101E-08

 POSITION                                       TOTAL-FORCE (eV/Angst)
      2.04328      5.89844      3.93856         0.008473      0.004892      0.008475
      2.04328      1.17969      6.56426        -0.008473     -0.004892     -0.008475
     -2.04328      5.89844      3.93856        -0.008473      0.004892      0.008475
      6.12984      1.17969      6.56426         0.008473     -0.004892     -0.008475
     -0.00000      2.35938      3.93856        -0.000000     -0.009783      0.008475
      4.08656      4.71875      6.56426        -0.000000      0.009783     -0.008475
      4.08656      4.71875      1.31285        -0.000000      0.013568     -0.001331
     -0.00000      2.35938      9.18996        -0.000000     -0.013568      0.001331
      2.04328      1.17969      1.31285        -0.011750     -0.006784     -0.001331
      2.04328      5.89844      9.18996         0.011750      0.006784      0.001331
      6.12984      1.17969      1.31285         0.011750     -0.006784     -0.001331
     -2.04328      5.89844      9.18996        -0.011750      0.006784      0.001331
      0.00000      4.71875      1.31285        -0.000000     -0.000000      0.001794
      4.08656      2.35938      9.18996        -0.000000      0.000000     -0.001794
      4.08656      2.35938      3.93856        -0.000000      0.000000      0.029386
      0.00000      4.71875      6.56426        -0.000000     -0.000000     -0.029386
      2.04328      5.89844      1.31285         0.008547      0.004935     -0.023180
      2.04328      1.17969      9.18996        -0.008547     -0.004935      0.023180
     -2.04328      5.89844      1.31285        -0.008547      0.004935     -0.023180
      6.12984      1.17969      9.18996         0.008547     -0.004935      0.023180
     -0.00000      2.35938      1.31285        -0.000000     -0.009869     -0.023180
      4.08656      4.71875      9.18996        -0.000000      0.009869      0.023180
      4.08656      4.71875      3.93856        -0.000000      0.087846      0.068222
     -0.00000      2.35938      6.56426         0.000000     -0.087846     -0.068222
      2.04328      1.17969      3.93856        -0.076077     -0.043923      0.068222
      2.04328      5.89844      6.56426         0.076077      0.043923     -0.068222
      6.12984      1.17969      3.93856         0.076077     -0.043923      0.068222
     -2.04328      5.89844      6.56426        -0.076077      0.043923     -0.068222
      0.00000      4.71875      3.93856        -0.000000      0.000000     -0.002388
      4.08656      2.35938      6.56426        -0.000000     -0.000000      0.002388
      4.08656      2.35938      1.31285        -0.000000     -0.000000      0.027919
      0.00000      4.71875      9.18996        -0.000000      0.000000     -0.027919
      2.04328      3.53906      0.00000        -0.000000      0.000000     -0.000000
      4.08656      0.00000      0.00000        -0.000000      0.000000     -0.000000
     -2.04328      3.53906      0.00000        -0.000000      0.000000     -0.000000
      2.04328      3.53906      2.62570         0.005883     -0.003397      0.006282
      2.04328      3.53906      7.87711        -0.005883      0.003397     -0.006282
      4.08656      0.00000      2.62570        -0.000000      0.006793      0.006282
      4.08656      0.00000      7.87711        -0.000000     -0.006793     -0.006282
     -2.04328      3.53906      2.62570        -0.005883     -0.003397      0.006282
     -2.04328      3.53906      7.87711         0.005883      0.003397     -0.006282
      0.00000      0.00000      0.00000        -0.000000      0.000000     -0.000000
      0.00000      0.00000      2.62570        -0.000000     -0.000000      0.180029
      0.00000      0.00000      7.87711        -0.000000      0.000000     -0.180029
      2.04328      3.53906      5.25141        -0.000000      0.000000     -0.000000
      4.08656      0.00000      5.25141        -0.000000      0.000000     -0.000000
     -2.04328      3.53906      5.25141        -0.000000      0.000000     -0.000000
      0.00000      0.00000      5.25141        -0.000000      0.000000     -0.000000
    total drift:                               -0.000006      0.000002     -0.000000

  FREE ENERGIE OF THE ION-ELECTRON SYSTEM (eV)
  free  energy   TOTEN  =      -313.17435147 eV

  energy  without entropy=     -313.13195954  energy(sigma->0) =     -313.16022082

 total charge

[...]

 magnetization (x)

# of ion       s       p       d       tot
    1       -0.022  -0.033   0.168   0.113
    2       -0.022  -0.033   0.168   0.113
    3       -0.022  -0.033   0.168   0.113
    4       -0.022  -0.033   0.168   0.113
    5       -0.022  -0.033   0.168   0.113
    6       -0.022  -0.033   0.168   0.113
    7       -0.023  -0.033   0.169   0.113
    8       -0.023  -0.033   0.169   0.113
    9       -0.023  -0.033   0.169   0.113
   10       -0.023  -0.033   0.169   0.113
   11       -0.023  -0.033   0.169   0.113
   12       -0.023  -0.033   0.169   0.113
   13       -0.024  -0.034   0.170   0.113
   14       -0.024  -0.034   0.170   0.113
   15       -0.022  -0.032   0.176   0.122
   16       -0.022  -0.032   0.176   0.122
   17       -0.016  -0.093   0.004  -0.104
   18       -0.016  -0.093   0.004  -0.104
   19       -0.016  -0.093   0.004  -0.104
   20       -0.016  -0.093   0.004  -0.104
   21       -0.016  -0.093   0.004  -0.104
   22       -0.016  -0.093   0.004  -0.104
   23       -0.014  -0.088   0.003  -0.099
   24       -0.014  -0.088   0.003  -0.099
   25       -0.014  -0.088   0.003  -0.099
   26       -0.014  -0.088   0.003  -0.099
   27       -0.014  -0.088   0.003  -0.099
   28       -0.014  -0.088   0.003  -0.099
   29       -0.015  -0.093   0.005  -0.104
   30       -0.015  -0.093   0.005  -0.104
   31       -0.016  -0.095   0.005  -0.107
   32       -0.016  -0.095   0.005  -0.107
   33        0.019   0.017   2.839   2.876
   34        0.019   0.017   2.839   2.876
   35        0.019   0.017   2.839   2.876
   36        0.020   0.017   2.838   2.875
   37        0.020   0.017   2.838   2.875
   38        0.020   0.017   2.838   2.875
   39        0.020   0.017   2.838   2.875
   40        0.020   0.017   2.838   2.875
   41        0.020   0.017   2.838   2.875
   42        0.018   0.017   2.773   2.808
   43        0.021   0.017   2.938   2.976
   44        0.021   0.017   2.938   2.976
   45        0.019   0.018   2.843   2.880
   46        0.019   0.018   2.843   2.880
   47        0.019   0.018   2.843   2.880
   48        0.014   0.007   2.306   2.327
tot         -0.296  -1.728  47.811  45.788