 vasp.6.1.1 19Jun20 (build Nov 30 2020 11:51:22) complex

 executed on             LinuxIFC date 2020.12.09  22:04:40

 INCAR:
 POTCAR:    PAW_PBE Ni 02Aug2007
 POTCAR:    PAW_PBE Ge 05Jan2001
 POTCAR:    PAW_PBE Mn 06Sep2000
 POTCAR:    PAW_PBE Fe 06Sep2000
 POTCAR:    PAW_PBE Ni 02Aug2007
   VRHFIN =Ni:

   TITEL  = PAW_PBE Ni 02Aug2007
   POMASS =   58.690; ZVAL   =   10.000    mass and valenz
   ENMAX  =  269.532; ENMIN  =  202.149 eV

   TITEL  = PAW_PBE Ge 05Jan2001
   POMASS =   72.610; ZVAL   =    4.000    mass and valenz
   ENMAX  =  173.807; ENMIN  =  130.355 eV

   TITEL  = PAW_PBE Mn 06Sep2000
   POMASS =   54.938; ZVAL   =    7.000    mass and valenz
   ENMAX  =  269.864; ENMIN  =  202.398 eV

   TITEL  = PAW_PBE Fe 06Sep2000
   POMASS =   55.847; ZVAL   =    8.000    mass and valenz
   ENMAX  =  267.882; ENMIN  =  200.911 eV

  PAW_PBE Ni 02Aug2007                  :
  PAW_PBE Ge 05Jan2001                  :
  PAW_PBE Mn 06Sep2000                  :
  PAW_PBE Fe 06Sep2000                  :

 POSCAR: MnFeNiGe_hex
  positions in direct lattice
 exchange correlation table for  LEXCH =        8
   RHO(1)=    0.500       N(1)  =     2000
   RHO(2)=  100.500       N(2)  =     4000

 ion  position               nearest neighbor table
   1  0.667  0.833  0.375-  27 2.35  29 2.35  23 2.35  17 2.50  26 2.50  36 2.66  45 2.66  38 2.66
                            46 2.66  43 2.66  48 2.66
   2  0.333  0.167  0.625-  28 2.35  30 2.35  24 2.35  25 2.50  18 2.50  39 2.66  44 2.66  46 2.66
                            48 2.66  37 2.66  45 2.66
   3  0.167  0.833  0.375-  25 2.35  23 2.35  29 2.35  28 2.50  19 2.50  40 2.66  47 2.66  43 2.66
                            48 2.66  38 2.66  46 2.66
   4  0.833  0.167  0.625-  26 2.35  24 2.35  30 2.35  27 2.50  20 2.50  39 2.66  44 2.66  46 2.66
                            48 2.66  47 2.66  41 2.66
   5  0.167  0.333  0.375-  29 2.35  27 2.35  25 2.35  24 2.50  21 2.50  43 2.66  48 2.66  47 2.66
                            40 2.66  36 2.66  45 2.66
   6  0.833  0.667  0.625-  30 2.35  28 2.35  26 2.35  23 2.50  22 2.50  37 2.66  41 2.66  45 2.66
                            47 2.66  44 2.66  48 2.66
   7  0.833  0.667  0.125-  31 2.35  19 2.35  17 2.35  23 2.50  22 2.50  33 2.66  35 2.66  36 2.66
                            40 2.66  42 2.66  43 2.66
   8  0.167  0.333  0.875-  18 2.35  32 2.35  20 2.35  24 2.50  21 2.50  42 2.66  44 2.66  35 2.66
                            41 2.66  37 2.66  33 2.66
   9  0.333  0.167  0.125-  19 2.35  31 2.35  21 2.35  25 2.50  18 2.50  34 2.66  38 2.66  42 2.66
                            43 2.66  36 2.66  33 2.66
  10  0.667  0.833  0.875-  20 2.35  32 2.35  22 2.35  26 2.50  17 2.50  33 2.66  37 2.66  34 2.66
                            39 2.66  42 2.66  44 2.66
  11  0.833  0.167  0.125-  17 2.35  21 2.35  31 2.35  27 2.50  20 2.50  34 2.66  38 2.66  42 2.66
                            43 2.66  35 2.66  40 2.66
  12  0.167  0.833  0.875-  18 2.35  22 2.35  32 2.35  28 2.50  19 2.50  35 2.66  41 2.66  42 2.66
                            44 2.66  39 2.66  34 2.66
  13  0.333  0.667  0.125-  21 2.35  17 2.35  19 2.35  29 2.50  32 2.50  33 2.66  35 2.66  36 2.66
                            40 2.66  38 2.66  34 2.66
  14  0.667  0.333  0.875-  22 2.35  20 2.35  18 2.35  30 2.50  31 2.50  34 2.66  39 2.66  37 2.66
                            33 2.66  35 2.66  41 2.66
  15  0.667  0.333  0.375-  23 2.35  25 2.35  27 2.35  30 2.50  31 2.50  38 2.66  46 2.66  45 2.66
                            36 2.66  40 2.66  47 2.66
  16  0.333  0.667  0.625-  24 2.35  26 2.35  28 2.35  29 2.50  32 2.50  37 2.66  41 2.66  45 2.66
                            47 2.66  46 2.66  39 2.66
  17  0.667  0.833  0.125-  11 2.35  13 2.35   7 2.35   1 2.50  10 2.50  33 2.66  36 2.66  34 2.66
                            38 2.66  42 2.66  43 2.66
  18  0.333  0.167  0.875-   8 2.35  12 2.35  14 2.35   2 2.50   9 2.50  42 2.66  44 2.66  33 2.66
                            37 2.66  34 2.66  39 2.66
  19  0.167  0.833  0.125-   9 2.35   7 2.35  13 2.35  12 2.50   3 2.50  35 2.66  40 2.66  42 2.66
                            43 2.66  38 2.66  34 2.66
  20  0.833  0.167  0.875-  10 2.35   8 2.35  14 2.35  11 2.50   4 2.50  34 2.66  39 2.66  42 2.66
                            44 2.66  35 2.66  41 2.66
  21  0.167  0.333  0.125-  13 2.35  11 2.35   9 2.35   8 2.50   5 2.50  42 2.66  43 2.66  35 2.66
                            40 2.66  36 2.66  33 2.66
  22  0.833  0.667  0.875-  14 2.35  12 2.35  10 2.35   7 2.50   6 2.50  33 2.66  35 2.66  37 2.66
                            41 2.66  42 2.66  44 2.66
  23  0.833  0.667  0.375-  15 2.35   3 2.35   1 2.35   7 2.50   6 2.50  36 2.66  40 2.66  45 2.66
                            47 2.66  43 2.66  48 2.66
  24  0.167  0.333  0.625-  16 2.35   4 2.35   2 2.35   8 2.50   5 2.50  44 2.66  48 2.66  47 2.66
                            41 2.66  37 2.66  45 2.66
  25  0.333  0.167  0.375-   3 2.35  15 2.35   5 2.35   9 2.50   2 2.50  38 2.66  43 2.66  46 2.66
                            48 2.66  36 2.66  45 2.66
  26  0.667  0.833  0.625-   4 2.35  16 2.35   6 2.35  10 2.50   1 2.50  37 2.66  45 2.66  39 2.66
                            46 2.66  44 2.66  48 2.66
  27  0.833  0.167  0.375-   1 2.35   5 2.35  15 2.35  11 2.50   4 2.50  38 2.66  43 2.66  46 2.66
                            48 2.66  47 2.66  40 2.66
  28  0.167  0.833  0.625-   2 2.35   6 2.35  16 2.35  12 2.50   3 2.50  41 2.66  47 2.66  44 2.66
                            48 2.66  39 2.66  46 2.66
  29  0.333  0.667  0.375-   5 2.35   1 2.35   3 2.35  13 2.50  16 2.50  36 2.66  40 2.66  45 2.66
                            47 2.66  46 2.66  38 2.66
  30  0.667  0.333  0.625-   6 2.35   2 2.35   4 2.35  14 2.50  15 2.50  39 2.66  46 2.66  45 2.66
                            37 2.66  41 2.66  47 2.66
  31  0.667  0.333  0.125-   7 2.35   9 2.35  11 2.35  14 2.50  15 2.50  34 2.66  38 2.66  36 2.66
                            33 2.66  35 2.66  40 2.66
  32  0.333  0.667  0.875-   8 2.35  10 2.35  12 2.35  13 2.50  16 2.50  33 2.66  35 2.66  37 2.66
                            41 2.66  39 2.66  34 2.66
  33  0.500  0.500  0.000-  36 2.50  37 2.50  10 2.66  17 2.66   7 2.66  22 2.66  31 2.66  32 2.66
                            13 2.66  14 2.66   9 2.66  18 2.66  21 2.66   8 2.66
  34  0.500  0.000  0.000-  38 2.50  39 2.50  14 2.66  31 2.66  17 2.66  20 2.66  10 2.66  11 2.66
                             9 2.66  13 2.66  32 2.66  19 2.66  12 2.66  18 2.66
  35  0.000  0.500  0.000-  40 2.50  41 2.50  12 2.66  19 2.66   8 2.66  21 2.66  22 2.66  32 2.66
                             7 2.66  13 2.66  20 2.66  11 2.66  31 2.66  14 2.66
  36  0.500  0.500  0.250-  33 2.50  45 2.50   1 2.66  17 2.66   7 2.66  23 2.66  29 2.66  31 2.66
                            13 2.66  15 2.66   9 2.66  25 2.66   5 2.66  21 2.66
  37  0.500  0.500  0.750-  33 2.50  45 2.50  10 2.66  26 2.66  22 2.66   6 2.66  30 2.66  32 2.66
                            14 2.66  16 2.66   2 2.66  18 2.66  24 2.66   8 2.66
  38  0.500  0.000  0.250-  34 2.50  46 2.50  15 2.66  31 2.66  17 2.66  25 2.66  27 2.66   9 2.66
                            11 2.66   1 2.66  29 2.66  13 2.66   3 2.66  19 2.66
  39  0.500  0.000  0.750-  34 2.50  46 2.50  14 2.66  30 2.66  20 2.66  26 2.66   4 2.66  10 2.66
                             2 2.66  16 2.66  32 2.66  12 2.66  28 2.66  18 2.66
  40  0.000  0.500  0.250-  35 2.50  47 2.50   3 2.66  19 2.66   5 2.66  21 2.66  23 2.66  29 2.66
                             7 2.66  13 2.66  27 2.66  11 2.66  15 2.66  31 2.66
  41  0.000  0.500  0.750-  35 2.50  47 2.50  12 2.66  28 2.66  22 2.66  24 2.66   8 2.66  32 2.66
                             6 2.66  16 2.66   4 2.66  20 2.66  30 2.66  14 2.66
  42  0.000  0.000  0.000-  43 2.50  44 2.50  18 2.66   8 2.66  21 2.66  19 2.66  20 2.66  11 2.66
                            12 2.66   9 2.66   7 2.66  22 2.66  17 2.66  10 2.66
  43  0.000  0.000  0.250-  42 2.50  48 2.50   5 2.66  21 2.66  19 2.66   3 2.66  25 2.66  27 2.66
                             9 2.66  11 2.66   7 2.66  23 2.66  17 2.66   1 2.66
  44  0.000  0.000  0.750-  42 2.50  48 2.50  18 2.66   8 2.66  24 2.66  20 2.66   2 2.66  28 2.66
                            12 2.66   4 2.66   6 2.66  22 2.66  26 2.66  10 2.66
  45  0.500  0.500  0.500-  36 2.50  37 2.50   1 2.66  26 2.66  23 2.66   6 2.66  29 2.66  30 2.66
                            15 2.66  16 2.66  25 2.66   2 2.66   5 2.66  24 2.66
  46  0.500  0.000  0.500-  38 2.50  39 2.50  15 2.66  30 2.66  25 2.66  26 2.66  27 2.66   2 2.66
                             4 2.66   1 2.66  29 2.66  16 2.66   3 2.66  28 2.66
  47  0.000  0.500  0.500-  40 2.50  41 2.50   3 2.66  28 2.66  23 2.66  24 2.66   5 2.66  29 2.66
                             6 2.66  16 2.66   4 2.66  27 2.66  15 2.66  30 2.66
  48  0.000  0.000  0.500-  43 2.50  44 2.50   5 2.66  24 2.66   3 2.66  25 2.66  27 2.66  28 2.66
                             4 2.66   2 2.66   6 2.66  23 2.66   1 2.66  26 2.66

  LATTYP: Found a hexagonal cell.
 ALAT       =     8.1330404282
 C/A-ratio  =     1.2280106345

  Lattice vectors:

 A1 = (   8.1330404282,   0.0000000000,   0.0000000000)
 A2 = (  -4.0665202141,   7.0434196208,   0.0000000000)
 A3 = (   0.0000000000,   0.0000000000,   9.9874601364)

Analysis of symmetry for initial positions (statically):
 Subroutine PRICEL returns:
 Original cell was already a primitive cell.

 Routine SETGRP: Setting up the symmetry group for a
 hexagonal supercell.

 Subroutine GETGRP returns: Found 12 space group operations
 (whereof 12 operations were pure point group operations)
 out of a pool of 24 trial point group operations.

The static configuration has the point symmetry D_3d.

Analysis of symmetry for dynamics (positions and initial velocities):
 Subroutine PRICEL returns:
 Original cell was already a primitive cell.

 Routine SETGRP: Setting up the symmetry group for a
 hexagonal supercell.

 Subroutine GETGRP returns: Found 12 space group operations
 (whereof 12 operations were pure point group operations)
 out of a pool of 24 trial point group operations.

The dynamic configuration has the point symmetry D_3d.

 Subroutine INISYM returns: Found 12 space group operations
 (whereof 12 operations are pure point group operations),
 and found     1 'primitive' translations

                                     Primitive cell

  volume of cell :     572.1258

  direct lattice vectors                    reciprocal lattice vectors
     8.133040428  0.000000000  0.000000000     0.122955248  0.070988245  0.000000000
    -4.066520214  7.043419621  0.000000000     0.000000000  0.141976491  0.000000000
     0.000000000  0.000000000  9.987460136     0.000000000  0.000000000  0.100125556

  length of vectors
     8.133040428  8.133040428  9.987460136     0.141976491  0.141976491  0.100125556

  position of ions in fractional coordinates (direct lattice)
     0.666666666  0.833333333  0.375000000
     0.333333333  0.166666666  0.625000000
     0.166666666  0.833333333  0.375000000
     0.833333333  0.166666666  0.625000000
     0.166666666  0.333333333  0.375000000
[...]

  energy without entropy =     -304.81027010  energy(sigma->0) =     -304.87530497

 average (electrostatic) potential at core
  the test charge radii are     0.9791  1.1631  1.0210  1.0103
  (the norm of the test charge is              1.0000)
       1 -83.3105       2 -83.3105       3 -83.3105       4 -83.3105       5 -83.3105
       6 -83.3105       7 -83.3162       8 -83.3162       9 -83.3162      10 -83.3162
      11 -83.3162      12 -83.3162      13 -83.3167      14 -83.3167      15 -83.3132
      16 -83.3132      17 -28.3223      18 -28.3223      19 -28.3223      20 -28.3223
      21 -28.3223      22 -28.3223      23 -28.3252      24 -28.3252      25 -28.3252
      26 -28.3252      27 -28.3252      28 -28.3252      29 -28.3201      30 -28.3201
      31 -28.3192      32 -28.3192      33 -41.4300      34 -41.4300      35 -41.4300
      36 -41.4327      37 -41.4327      38 -41.4327      39 -41.4327      40 -41.4327
      41 -41.4327      42 -41.4571      43 -41.4207      44 -41.4207      45 -41.4326
      46 -41.4326      47 -41.4326      48 -40.8324

 E-fermi :   8.2449     XC(G=0): -12.6646     alpha+bet :-15.5258

[...]

 k-point    69 :       0.3333    0.3333    0.4286
  band No.  band energies     occupation
      1      -3.1056      2.00000
      2      -3.1046      2.00000
      3      -3.1046      2.00000
      4      -2.9136      2.00000
      5      -2.9124      2.00000
      6      -2.9124      2.00000
      7      -1.3956      2.00000
      8      -1.3956      2.00000
      9      -1.3009      2.00000
     10      -1.3009      2.00000
     11      -1.0879      2.00000
     12      -1.0847      2.00000
     13      -1.0847      2.00000
     14      -0.8275      2.00000
     15      -0.8236      2.00000
     16      -0.8236      2.00000
     17       2.2236      2.00000
     18       2.2992      2.00000
     19       2.3048      2.00000
     20       2.3048      2.00000
     21       2.3783      2.00000
     22       2.3843      2.00000
     23       2.3843      2.00000
     24       2.4202      2.00000
     25       2.4652      2.00000
     26       2.4652      2.00000
     27       2.7675      2.00000
     28       2.7675      2.00000
     29       3.1912      2.00000
     30       3.2027      2.00000
     31       3.2027      2.00000
     32       3.2652      2.00000
     33       3.2758      2.00000
     34       3.2758      2.00000
     35       3.9636      2.00000
     36       3.9662      2.00000
     37       3.9662      2.00000
     38       3.9757      2.00000
     39       3.9829      2.00000
     40       3.9829      2.00000
     41       4.2071      2.00000
     42       4.2511      2.00000
     43       4.2524      2.00000
     44       4.2524      2.00000
     45       4.4047      2.00000
     46       4.4063      2.00000
     47       4.4063      2.00000
     48       4.4790      2.00000
     49       4.6503      2.00000
     50       4.6526      2.00000
     51       4.6526      2.00000
     52       4.7008      2.00000
     53       4.7028      2.00000
     54       4.7028      2.00000
     55       4.7214      2.00000
     56       4.7214      2.00000
     57       4.7526      2.00000
     58       4.7548      2.00000
     59       4.7548      2.00000
     60       4.7625      2.00000
[...]
    346      25.6135      0.00000
    347      25.7741      0.00000
    348      25.7783      0.00000
    349      25.7783      0.00000
    350      26.0541      0.00000
    351      26.0541      0.00000
    352      26.0614      0.00000
    353      26.2386      0.00000
    354      26.2386      0.00000
    355      26.2468      0.00000
    356      26.3094      0.00000
    357      26.4048      0.00000
    358      26.4079      0.00000
    359      26.4079      0.00000
    360      26.8224      0.00000

 soft charge-density along one line, spin component           1
         0         1         2         3         4         5         6         7         8         9
 total charge-density along one line

------------------------ aborting loop because EDIFF is reached ----------------------------------------

  FORCE on cell =-STRESS in cart. coord.  units (eV):
  Direction    XX          YY          ZZ          XY          YZ          ZX
  Alpha Z  1680.34194  1680.34194  1680.34194
  Ewald   -7552.71999 -7552.71999 -7876.01137    -0.00001     0.00000     0.00000
  Hartree  2050.75380  2050.75379  1943.54569    -0.00000     0.00000    -0.00000
  E(xc)   -1646.61839 -1646.61840 -1642.64714    -0.00000     0.00000    -0.00000
  Local    -498.38826  -498.38960   -77.12891    -0.00115    -0.00000     0.00000
  n-local  -260.90623  -258.18936  -230.78752    -1.28146    -0.17879    -1.07915
  augment  3309.24357  3309.24444  3300.54877     0.00075     0.00000    -0.00000
  Kinetic  2916.47459  2917.59023  2902.27612    -2.61871     0.14754     0.29288
  Fock        0.00000     0.00000     0.00000     0.00000     0.00000     0.00000
  Total       0.09703     0.09703     0.13759     0.00000    -0.00000     0.00000
  in kB       0.27200     0.27200     0.38569     0.00000    -0.00000     0.00000

 VOLUME and BASIS-vectors are now :
  energy-cutoff  :      450.00
  volume of cell :      571.57
      direct lattice vectors                 reciprocal lattice vectors
     8.130228106 -0.000000000  0.000000000     0.122997779  0.071012801 -0.000000000
    -4.065114053  7.040984078  0.000000000     0.000000000  0.142025602 -0.000000000
     0.000000000  0.000000000  9.984581369    -0.000000000 -0.000000000  0.100154424

  length of vectors
     8.130228106  8.130228106  9.984581369     0.142025602  0.142025602  0.100154424

 FORCES acting on ions
    electron-ion (+dipol)            ewald-force                    non-local-force                 convergence-correction
   0.127E+02 0.731E+01 0.964E+01   -.127E+02 -.733E+01 -.965E+01   0.995E-01 0.575E-01 0.369E-01   0.108E-01 0.624E-02 -.137E-01
   -.127E+02 -.731E+01 -.964E+01   0.127E+02 0.733E+01 0.965E+01   -.995E-01 -.575E-01 -.369E-01   -.108E-01 -.624E-02 0.137E-01
   -.127E+02 0.731E+01 0.964E+01   0.127E+02 -.733E+01 -.965E+01   -.995E-01 0.575E-01 0.369E-01   -.108E-01 0.624E-02 -.137E-01
   0.127E+02 -.731E+01 -.964E+01   -.127E+02 0.733E+01 0.965E+01   0.995E-01 -.575E-01 -.369E-01   0.108E-01 -.624E-02 0.137E-01
   0.252E-05 -.146E+02 0.964E+01   0.112E-05 0.147E+02 -.965E+01   -.173E-17 -.115E+00 0.369E-01   -.989E-08 -.125E-01 -.137E-01
   -.286E-05 0.146E+02 -.964E+01   -.680E-06 -.147E+02 0.965E+01   0.173E-17 0.115E+00 -.369E-01   0.985E-08 0.125E-01 0.137E-01
   -.274E-05 0.211E+01 0.432E+01   -.680E-06 -.214E+01 -.430E+01   -.759E-18 0.157E-01 -.500E-02   0.153E-07 0.732E-02 -.180E-01
   0.881E-06 -.211E+01 -.432E+01   -.894E-05 0.214E+01 0.430E+01   0.976E-18 -.157E-01 0.500E-02   -.155E-07 -.732E-02 0.180E-01
   -.183E+01 -.105E+01 0.432E+01   0.185E+01 0.107E+01 -.430E+01   -.136E-01 -.784E-02 -.500E-02   -.634E-02 -.366E-02 -.180E-01
   0.183E+01 0.105E+01 -.432E+01   -.185E+01 -.107E+01 0.430E+01   0.136E-01 0.784E-02 0.500E-02   0.634E-02 0.366E-02 0.180E-01
   0.183E+01 -.105E+01 0.432E+01   -.185E+01 0.107E+01 -.430E+01   0.136E-01 -.784E-02 -.500E-02   0.634E-02 -.366E-02 -.180E-01
   -.183E+01 0.105E+01 -.432E+01   0.185E+01 -.107E+01 0.430E+01   -.136E-01 0.784E-02 0.500E-02   -.634E-02 0.366E-02 0.180E-01
   -.273E-05 0.136E-05 0.273E+01   -.680E-06 0.227E-05 -.267E+01   0.217E-18 -.141E-17 -.511E-01   0.122E-07 -.942E-08 -.180E-01
   0.869E-06 -.316E-05 -.273E+01   -.894E-05 -.933E-05 0.267E+01   0.141E-17 0.141E-17 0.511E-01   -.125E-07 0.819E-08 0.180E-01
   0.236E-05 -.179E-05 0.324E+01   0.116E-05 -.152E-06 -.327E+01   0.117E-17 0.434E-18 0.580E-01   -.153E-07 0.972E-08 -.201E-01
   -.274E-05 0.134E-05 -.324E+01   -.680E-06 0.228E-05 0.327E+01   -.732E-18 -.434E-18 -.580E-01   0.152E-07 -.111E-07 0.201E-01
   0.718E+00 0.415E+00 0.173E+01   -.740E+00 -.427E+00 -.172E+01   0.117E-01 0.674E-02 -.155E-02   0.264E-02 0.152E-02 -.749E-02
   -.718E+00 -.415E+00 -.173E+01   0.740E+00 0.427E+00 0.172E+01   -.117E-01 -.674E-02 0.155E-02   -.264E-02 -.152E-02 0.749E-02
   -.718E+00 0.415E+00 0.173E+01   0.740E+00 -.427E+00 -.172E+01   -.117E-01 0.674E-02 -.155E-02   -.264E-02 0.152E-02 -.749E-02
   0.718E+00 -.415E+00 -.173E+01   -.740E+00 0.427E+00 0.172E+01   0.117E-01 -.674E-02 0.155E-02   0.264E-02 -.152E-02 0.749E-02
   -.759E-06 -.829E+00 0.173E+01   0.327E-06 0.854E+00 -.172E+01   -.434E-18 -.135E-01 -.155E-02   -.933E-08 -.305E-02 -.749E-02
   0.750E-06 0.829E+00 -.173E+01   -.625E-06 -.854E+00 0.172E+01   0.434E-18 0.135E-01 0.155E-02   0.933E-08 0.305E-02 0.749E-02
   0.786E-06 0.580E+01 0.382E+01   -.433E-06 -.587E+01 -.386E+01   0.343E-22 0.115E+00 0.764E-01   0.102E-07 0.227E-02 -.607E-02
   -.759E-06 -.580E+01 -.382E+01   0.318E-06 0.587E+01 0.386E+01   -.173E-17 -.115E+00 -.764E-01   -.102E-07 -.227E-02 0.607E-02
   -.503E+01 -.290E+01 0.382E+01   0.508E+01 0.293E+01 -.386E+01   -.994E-01 -.574E-01 0.764E-01   -.196E-02 -.113E-02 -.607E-02
   0.503E+01 0.290E+01 -.382E+01   -.508E+01 -.293E+01 0.386E+01   0.994E-01 0.574E-01 -.764E-01   0.196E-02 0.113E-02 0.607E-02
   0.503E+01 -.290E+01 0.382E+01   -.508E+01 0.293E+01 -.386E+01   0.994E-01 -.574E-01 0.764E-01   0.196E-02 -.113E-02 -.607E-02
   -.503E+01 0.290E+01 -.382E+01   0.508E+01 -.293E+01 0.386E+01   -.994E-01 0.574E-01 -.764E-01   -.196E-02 0.113E-02 0.607E-02
   0.778E-06 -.353E-06 0.129E+01   -.433E-06 0.683E-06 -.131E+01   0.217E-17 0.000E+00 -.569E-02   0.589E-08 -.403E-08 -.552E-02
   -.764E-06 0.406E-06 -.129E+01   0.332E-06 -.655E-06 0.131E+01   -.130E-17 0.000E+00 0.569E-02   -.589E-08 0.377E-08 0.552E-02
   -.762E-06 0.408E-06 0.108E+01   0.329E-06 -.657E-06 -.107E+01   0.434E-18 0.000E+00 0.539E-02   -.566E-08 0.362E-08 -.494E-02
   0.751E-06 -.190E-06 -.108E+01   -.625E-06 0.175E-05 0.107E+01   -.130E-17 0.000E+00 -.539E-02   0.565E-08 -.408E-08 0.494E-02
   0.589E-06 0.309E-06 0.116E-10   0.233E-05 -.770E-06 -.911E-13   -.132E-22 0.000E+00 0.000E+00   -.139E-08 -.385E-11 -.862E-13
   -.311E-06 0.829E-06 -.534E-06   -.376E-05 0.274E-05 -.360E-05   -.717E-28 0.000E+00 0.000E+00   -.332E-10 -.782E-09 0.147E-09
   0.951E-08 0.309E-06 -.139E-10   -.158E-05 -.770E-06 0.830E-13   -.662E-23 0.000E+00 0.000E+00   0.140E-08 -.112E-11 -.154E-11
   -.915E-02 0.528E-02 0.337E+01   -.556E-07 -.770E-06 -.335E+01   -.826E-02 0.477E-02 -.643E-03   0.246E-02 -.142E-02 -.175E-01
   0.915E-02 -.528E-02 -.337E+01   0.233E-05 -.770E-06 0.335E+01   0.826E-02 -.477E-02 0.643E-03   -.246E-02 0.142E-02 0.175E-01
   0.164E-06 -.106E-01 0.337E+01   -.536E-06 -.493E-06 -.335E+01   0.108E-18 -.954E-02 -.643E-03   -.483E-09 0.285E-02 -.175E-01
   -.311E-06 0.106E-01 -.337E+01   -.376E-05 0.274E-05 0.335E+01   0.108E-18 0.954E-02 0.643E-03   0.443E-09 -.285E-02 0.175E-01
   0.915E-02 0.528E-02 0.337E+01   -.747E-06 -.770E-06 -.335E+01   0.826E-02 0.477E-02 -.643E-03   -.246E-02 -.142E-02 -.175E-01
   -.915E-02 -.528E-02 -.337E+01   -.158E-05 -.770E-06 0.335E+01   -.826E-02 -.477E-02 0.643E-03   0.246E-02 0.142E-02 0.175E-01
   -.311E-06 -.211E-06 0.534E-06   -.376E-05 -.428E-05 0.360E-05   -.591E-27 0.000E+00 0.000E+00   -.304E-10 0.785E-09 -.146E-09
   0.152E-06 0.253E-06 0.152E+02   -.536E-06 -.105E-05 -.153E+02   0.867E-18 -.434E-18 -.129E+00   -.124E-08 0.139E-08 -.149E-01
   -.298E-06 -.196E-06 -.152E+02   -.376E-05 -.428E-05 0.153E+02   -.217E-18 0.434E-18 0.129E+00   0.121E-08 0.691E-10 0.149E-01
   0.236E-06 0.309E-06 -.198E-11   -.556E-07 -.770E-06 0.462E-13   0.186E-23 0.000E+00 0.000E+00   -.116E-08 -.112E-10 0.278E-12
   0.165E-06 0.350E-06 0.885E-07   -.536E-06 -.493E-06 0.598E-06   -.748E-29 0.000E+00 0.000E+00   -.604E-11 -.646E-09 -.188E-09
   0.133E-06 0.309E-06 -.610E-10   -.747E-06 -.770E-06 0.426E-13   0.414E-23 0.000E+00 0.000E+00   0.118E-08 0.523E-11 0.162E-10
   0.188E-06 0.306E-06 -.101E-06   -.613E-06 -.120E-05 -.683E-06   0.968E-28 0.000E+00 0.000E+00   0.441E-11 0.786E-09 0.204E-09
   -.615E-05 0.113E-05 -.990E-07   -.137E-12 0.729E-13 -.639E-13   0.111E-16 -.373E-16 0.000E+00   -.110E-08 -.127E-08 0.124E-09

 POSITION                                       TOTAL-FORCE (eV/Angst)
      2.03256      5.86749      3.74422         0.072850      0.042060      0.016903
      2.03256      1.17350      6.24036        -0.072850     -0.042060     -0.016903
     -2.03256      5.86749      3.74422        -0.072850      0.042060      0.016903
      6.09767      1.17350      6.24036         0.072850     -0.042060     -0.016903
     -0.00000      2.34699      3.74422        -0.000000     -0.084120      0.016903
      4.06511      4.69399      6.24036        -0.000000      0.084120     -0.016903
      4.06511      4.69399      1.24807        -0.000000     -0.004448     -0.003386
     -0.00000      2.34699      8.73651        -0.000000      0.004448      0.003386
      2.03256      1.17350      1.24807         0.003852      0.002224     -0.003386
      2.03256      5.86749      8.73651        -0.003852     -0.002224      0.003386
      6.09767      1.17350      1.24807        -0.003852      0.002224     -0.003386
     -2.03256      5.86749      8.73651         0.003852     -0.002224      0.003386
      0.00000      4.69399      1.24807        -0.000000     -0.000000     -0.006221
      4.06511      2.34699      8.73651        -0.000000     -0.000000      0.006221
      4.06511      2.34699      3.74422        -0.000000     -0.000000      0.003639
      0.00000      4.69399      6.24036        -0.000000     -0.000000     -0.003639
      2.03256      5.86749      1.24807        -0.007238     -0.004179      0.003192
      2.03256      1.17350      8.73651         0.007238      0.004179     -0.003192
     -2.03256      5.86749      1.24807         0.007238     -0.004179      0.003192
      6.09767      1.17350      8.73651        -0.007238      0.004179     -0.003192
     -0.00000      2.34699      1.24807        -0.000000      0.008357      0.003192
      4.06511      4.69399      8.73651        -0.000000     -0.008357     -0.003192
      4.06511      4.69399      3.74422        -0.000000      0.054671      0.031308
     -0.00000      2.34699      6.24036        -0.000000     -0.054671     -0.031308
      2.03256      1.17350      3.74422        -0.047347     -0.027336      0.031308
      2.03256      5.86749      6.24036         0.047347      0.027336     -0.031308
      6.09767      1.17350      3.74422         0.047347     -0.027336      0.031308
     -2.03256      5.86749      6.24036        -0.047347      0.027336     -0.031308
      0.00000      4.69399      3.74422        -0.000000     -0.000000     -0.029191
      4.06511      2.34699      6.24036        -0.000000     -0.000000      0.029191
      4.06511      2.34699      1.24807        -0.000000     -0.000000      0.012534
      0.00000      4.69399      8.73651        -0.000000     -0.000000     -0.012534
      2.03256      3.52049      0.00000        -0.000000     -0.000000      0.000000
      4.06511     -0.00000      0.00000        -0.000000     -0.000000      0.000000
     -2.03256      3.52049      0.00000        -0.000000     -0.000000      0.000000
      2.03256      3.52049      2.49615        -0.014946      0.008629      0.005963
      2.03256      3.52049      7.48844         0.014946     -0.008629     -0.005963
      4.06511     -0.00000      2.49615        -0.000000     -0.017259      0.005963
      4.06511     -0.00000      7.48844        -0.000000      0.017259     -0.005963
     -2.03256      3.52049      2.49615         0.014946      0.008629      0.005963
     -2.03256      3.52049      7.48844        -0.014946     -0.008629     -0.005963
      0.00000      0.00000      0.00000        -0.000000     -0.000000      0.000000
      0.00000      0.00000      2.49615        -0.000000     -0.000000     -0.259008
      0.00000      0.00000      7.48844        -0.000000     -0.000000      0.259008
      2.03256      3.52049      4.99229        -0.000000     -0.000000      0.000000
      4.06511     -0.00000      4.99229        -0.000000     -0.000000      0.000000
     -2.03256      3.52049      4.99229        -0.000000     -0.000000      0.000000
      0.00000      0.00000      4.99229        -0.000000     -0.000000      0.000000
    total drift:                               -0.000006      0.000001     -0.000000

  FREE ENERGIE OF THE ION-ELECTRON SYSTEM (eV)
  free  energy   TOTEN  =      -304.90782240 eV

  energy  without entropy=     -304.81027010  energy(sigma->0) =     -304.87530497

 d Force = 0.0000000E+00[ 0.000E+00, 0.000E+00]  d Energy = 0.6508870E-03-0.651E-03
 d Force = 0.0000000E+00[ 0.000E+00, 0.000E+00]  d Ewald  =-0.1103258E+02 0.110E+02

 reached required accuracy - stopping structural energy minimisation
 writing wavefunctions