 vasp.6.1.1 19Jun20 (build Nov 30 2020 11:51:22) complex

 executed on             LinuxIFC date 2021.05.14  11:43:25

 INCAR:
 POTCAR:    PAW_PBE Mn 06Sep2000
 POTCAR:    PAW_PBE Ni 02Aug2007
 POTCAR:    PAW_PBE Ge 05Jan2001
 POTCAR:    PAW_PBE Fe 06Sep2000
 POTCAR:    PAW_PBE Mn 06Sep2000
   VRHFIN =Mn: d6 s1

   TITEL  = PAW_PBE Mn 06Sep2000
   POMASS =   54.938; ZVAL   =    7.000    mass and valenz
   ENMAX  =  269.864; ENMIN  =  202.398 eV

   TITEL  = PAW_PBE Ni 02Aug2007
   POMASS =   58.690; ZVAL   =   10.000    mass and valenz
   ENMAX  =  269.532; ENMIN  =  202.149 eV

   TITEL  = PAW_PBE Ge 05Jan2001
   POMASS =   72.610; ZVAL   =    4.000    mass and valenz
   ENMAX  =  173.807; ENMIN  =  130.355 eV

   TITEL  = PAW_PBE Fe 06Sep2000
   POMASS =   55.847; ZVAL   =    8.000    mass and valenz
   ENMAX  =  267.882; ENMIN  =  200.911 eV

  PAW_PBE Mn 06Sep2000                  :
  PAW_PBE Ni 02Aug2007                  :
  PAW_PBE Ge 05Jan2001                  :
  PAW_PBE Fe 06Sep2000                  :

 POSCAR: MnNiGe_orth
  positions in direct lattice
  velocities in cartesian coordinates
 exchange correlation table for  LEXCH =        8
   RHO(1)=    0.500       N(1)  =     2000
   RHO(2)=  100.500       N(2)  =     4000

 ion  position               nearest neighbor table
   1  0.242  0.250  0.178-  41 2.48  45 2.48  32 2.54  44 2.73  40 2.73  16 2.76  18 2.76  29 2.83
                            25 2.83  24 2.89  28 2.89  14 3.13  10 3.13   7 3.17   3 3.17
   2  0.242  0.750  0.178-  41 2.48  45 2.48  33 2.54  44 2.73  40 2.73  17 2.76  19 2.76  29 2.83
                            25 2.83  24 2.89  28 2.89  14 3.13  10 3.13   8 3.17   4 3.17
   3  0.492  0.250  0.322-  42 2.48  46 2.48  34 2.54  45 2.73  41 2.73  18 2.76  20 2.76  30 2.83
                            26 2.83  25 2.89  29 2.89  11 3.13  48 3.13   1 3.17   5 3.17
   4  0.492  0.750  0.322-  42 2.48  46 2.48  35 2.54  45 2.73  41 2.73  19 2.76  21 2.76  30 2.83
                            26 2.83  25 2.89  29 2.89  11 3.13  48 3.13   2 3.17   6 3.17
   5  0.742  0.250  0.178-  43 2.48  47 2.48  36 2.54  46 2.73  42 2.73  20 2.76  22 2.76  31 2.83
                            27 2.83  26 2.89  30 2.89  15 3.13  12 3.13   7 3.17   3 3.17
   6  0.742  0.750  0.178-  43 2.48  47 2.48  37 2.54  46 2.73  42 2.73  21 2.76  23 2.76  31 2.83
                            27 2.83  26 2.89  30 2.89  15 3.13  12 3.13   8 3.17   4 3.17
   7  0.992  0.250  0.322-  40 2.48  44 2.48  38 2.54  43 2.73  47 2.73  22 2.76  16 2.76  28 2.83
                            24 2.83  31 2.89  27 2.89  13 3.13   9 3.13   1 3.17   5 3.17
   8  0.992  0.750  0.322-  40 2.48  44 2.48  39 2.54  43 2.73  47 2.73  23 2.76  17 2.76  28 2.83
                            24 2.83  31 2.89  27 2.89  13 3.13   9 3.13   2 3.17   6 3.17
   9  0.008  0.000  0.678-  38 2.48  39 2.48  40 2.54  33 2.73  32 2.73  24 2.76  27 2.76  23 2.83
                            22 2.83  17 2.89  16 2.89   8 3.13   7 3.13  10 3.17  12 3.17
  10  0.258  0.000  0.822-  32 2.48  33 2.48  41 2.54  35 2.73  34 2.73  25 2.76  24 2.76  17 2.83
                            16 2.83  19 2.89  18 2.89   2 3.13   1 3.13  11 3.17   9 3.17
  11  0.508  0.000  0.678-  34 2.48  35 2.48  42 2.54  37 2.73  36 2.73  26 2.76  25 2.76  19 2.83
                            18 2.83  21 2.89  20 2.89   4 3.13   3 3.13  10 3.17  12 3.17
  12  0.758  0.000  0.822-  36 2.48  37 2.48  43 2.54  39 2.73  38 2.73  27 2.76  26 2.76  21 2.83
                            20 2.83  23 2.89  22 2.89   6 3.13   5 3.13  11 3.17   9 3.17
  13  0.008  0.500  0.678-  38 2.48  39 2.48  44 2.54  33 2.73  32 2.73  28 2.76  31 2.76  23 2.83
                            22 2.83  17 2.89  16 2.89   8 3.13   7 3.13  14 3.17  15 3.17
  14  0.258  0.500  0.822-  32 2.48  33 2.48  45 2.54  35 2.73  34 2.73  29 2.76  28 2.76  17 2.83
                            16 2.83  19 2.89  18 2.89   2 3.13   1 3.13  13 3.17
  15  0.758  0.500  0.822-  36 2.48  37 2.48  47 2.54  39 2.73  38 2.73  31 2.76  30 2.76  21 2.83
                            20 2.83  23 2.89  22 2.89   6 3.13   5 3.13  13 3.17
  16  0.177  0.250  0.553-  40 2.32  44 2.32  32 2.37  34 2.44  25 2.67  29 2.67   1 2.76   7 2.76
                            10 2.83  14 2.83  13 2.89   9 2.89
  17  0.177  0.750  0.553-  40 2.32  44 2.32  33 2.37  35 2.44  25 2.67  29 2.67   2 2.76   8 2.76
                            10 2.83  14 2.83  13 2.89   9 2.89
  18  0.427  0.250  0.947-  41 2.32  45 2.32  34 2.37  36 2.44  26 2.67  30 2.67   3 2.76   1 2.76
                            11 2.83  48 2.83  14 2.89  10 2.89
  19  0.427  0.750  0.947-  41 2.32  45 2.32  35 2.37  37 2.44  26 2.67  30 2.67   4 2.76   2 2.76
                            11 2.83  48 2.83  14 2.89  10 2.89
  20  0.677  0.250  0.553-  42 2.32  46 2.32  36 2.37  38 2.44  27 2.67  31 2.67   5 2.76   3 2.76
                            12 2.83  15 2.83  11 2.89  48 2.89
  21  0.677  0.750  0.553-  42 2.32  46 2.32  37 2.37  39 2.44  27 2.67  31 2.67   6 2.76   4 2.76
                            12 2.83  15 2.83  11 2.89  48 2.89
  22  0.927  0.250  0.947-  43 2.32  47 2.32  38 2.37  32 2.44  24 2.67  28 2.67   7 2.76   5 2.76
                             9 2.83  13 2.83  12 2.89  15 2.89
  23  0.927  0.750  0.947-  43 2.32  47 2.32  39 2.37  33 2.44  24 2.67  28 2.67   8 2.76   6 2.76
                             9 2.83  13 2.83  12 2.89  15 2.89
  24  0.073  0.000  0.053-  32 2.32  33 2.32  40 2.37  43 2.44  22 2.67  23 2.67   9 2.76  10 2.76
                             7 2.83   8 2.83   1 2.89   2 2.89
  25  0.323  0.000  0.447-  34 2.32  35 2.32  41 2.37  40 2.44  16 2.67  17 2.67  10 2.76  11 2.76
                             1 2.83   2 2.83   3 2.89   4 2.89
  26  0.573  0.000  0.053-  36 2.32  37 2.32  42 2.37  41 2.44  18 2.67  19 2.67  11 2.76  12 2.76
                             3 2.83   4 2.83   5 2.89   6 2.89
  27  0.823  0.000  0.447-  38 2.32  39 2.32  43 2.37  42 2.44  20 2.67  21 2.67  12 2.76   9 2.76
                             5 2.83   6 2.83   7 2.89   8 2.89
  28  0.073  0.500  0.053-  32 2.32  33 2.32  44 2.37  47 2.44  22 2.67  23 2.67  13 2.76  14 2.76
                             7 2.83   8 2.83   1 2.89   2 2.89
  29  0.323  0.500  0.447-  34 2.32  35 2.32  45 2.37  44 2.44  16 2.67  17 2.67  14 2.76  48 2.76
                             1 2.83   2 2.83   3 2.89   4 2.89
  30  0.573  0.500  0.053-  36 2.32  37 2.32  46 2.37  45 2.44  18 2.67  19 2.67  48 2.76  15 2.76
                             3 2.83   4 2.83   5 2.89   6 2.89
  31  0.823  0.500  0.447-  38 2.32  39 2.32  47 2.37  46 2.44  20 2.67  21 2.67  15 2.76  13 2.76
                             5 2.83   6 2.83   7 2.89   8 2.89
  32  0.125  0.250  0.878-  24 2.32  28 2.32  16 2.37  22 2.44  10 2.48  14 2.48   1 2.54  13 2.73
                             9 2.73
  33  0.125  0.750  0.878-  24 2.32  28 2.32  17 2.37  23 2.44  10 2.48  14 2.48   2 2.54  13 2.73
                             9 2.73
  34  0.375  0.250  0.622-  25 2.32  29 2.32  18 2.37  16 2.44  11 2.48  48 2.48   3 2.54  14 2.73
                            10 2.73
  35  0.375  0.750  0.622-  25 2.32  29 2.32  19 2.37  17 2.44  11 2.48  48 2.48   4 2.54  14 2.73
                            10 2.73
  36  0.625  0.250  0.878-  26 2.32  30 2.32  20 2.37  18 2.44  12 2.48  15 2.48   5 2.54  11 2.73
                            48 2.73
  37  0.625  0.750  0.878-  26 2.32  30 2.32  21 2.37  19 2.44  12 2.48  15 2.48   6 2.54  11 2.73
                            48 2.73
  38  0.875  0.250  0.622-  27 2.32  31 2.32  22 2.37  20 2.44   9 2.48  13 2.48   7 2.54  12 2.73
                            15 2.73
  39  0.875  0.750  0.622-  27 2.32  31 2.32  23 2.37  21 2.44   9 2.48  13 2.48   8 2.54  12 2.73
                            15 2.73
  40  0.125  0.000  0.378-  16 2.32  17 2.32  24 2.37  25 2.44   7 2.48   8 2.48   9 2.54   2 2.73
                             1 2.73
  41  0.375  0.000  0.122-  18 2.32  19 2.32  25 2.37  26 2.44   1 2.48   2 2.48  10 2.54   4 2.73
                             3 2.73
  42  0.625  0.000  0.378-  20 2.32  21 2.32  26 2.37  27 2.44   3 2.48   4 2.48  11 2.54   6 2.73
                             5 2.73
  43  0.875  0.000  0.122-  22 2.32  23 2.32  27 2.37  24 2.44   5 2.48   6 2.48  12 2.54   8 2.73
                             7 2.73
  44  0.125  0.500  0.378-  16 2.32  17 2.32  28 2.37  29 2.44   7 2.48   8 2.48  13 2.54   2 2.73
                             1 2.73
  45  0.375  0.500  0.122-  18 2.32  19 2.32  29 2.37  30 2.44   1 2.48   2 2.48  14 2.54   4 2.73
                             3 2.73
  46  0.625  0.500  0.378-  20 2.32  21 2.32  30 2.37  31 2.44   3 2.48   4 2.48  48 2.54   6 2.73
                             5 2.73
  47  0.875  0.500  0.122-  22 2.32  23 2.32  31 2.37  28 2.44   5 2.48   6 2.48  15 2.54   8 2.73
                             7 2.73
  48  0.508  0.500  0.678-  34 2.48  35 2.48  46 2.54  37 2.73  36 2.73  30 2.76  29 2.76  19 2.83
                            18 2.83  21 2.89  20 2.89   4 3.13   3 3.13

  LATTYP: Found a simple orthorhombic cell.
 ALAT       =     7.0446418581
 B/A-ratio  =     1.0555008508
 C/A-ratio  =     1.7085169161

  Lattice vectors:

 A1 = (   0.0000000000,   0.0000000000,  -7.0446418581)
 A2 = (   0.0000000000,  -7.4356254748,   0.0000000000)
 A3 = ( -12.0358897822,   0.0000000000,   0.0000000000)

Analysis of symmetry for initial positions (statically):
 Subroutine PRICEL returns:
 Original cell was already a primitive cell.

 Routine SETGRP: Setting up the symmetry group for a
 simple orthorhombic supercell.

 Subroutine GETGRP returns: Found  2 space group operations
 (whereof  2 operations were pure point group operations)
 out of a pool of  8 trial point group operations.

The static configuration has the point symmetry C_1h.

Analysis of symmetry for dynamics (positions and initial velocities):
 Subroutine PRICEL returns:
 Original cell was already a primitive cell.

[...]

The dynamic configuration has the point symmetry C_1h.

Analysis of structural, dynamic, and magnetic symmetry:
 Subroutine PRICEL returns:
 Original cell was already a primitive cell.

 Routine SETGRP: Setting up the symmetry group for a
 simple orthorhombic supercell.

 Subroutine GETGRP returns: Found  2 space group operations
 (whereof  2 operations were pure point group operations)
 out of a pool of  8 trial point group operations.

The magnetic configuration has the point symmetry C_1h.

 Subroutine INISYM returns: Found  2 space group operations
 (whereof  2 operations are pure point group operations),
 and found     1 'primitive' translations

                                     Primitive cell

  volume of cell :     630.4558

  direct lattice vectors                    reciprocal lattice vectors
    12.035889782  0.000000000  0.000000000     0.083084842  0.000000000  0.000000000
     0.000000000  7.435625475  0.000000000     0.000000000  0.134487677  0.000000000
     0.000000000  0.000000000  7.044641858     0.000000000  0.000000000  0.141951858

  length of vectors
    12.035889782  7.435625475  7.044641858     0.083084842  0.134487677  0.141951858

[...]
   22        0.453   0.537   8.438   9.428
   23        0.453   0.537   8.438   9.428
   24        0.453   0.537   8.441   9.431
   25        0.453   0.535   8.441   9.429
   26        0.453   0.537   8.439   9.430
   27        0.453   0.536   8.439   9.428
   28        0.453   0.537   8.441   9.431
   29        0.452   0.534   8.439   9.426
   30        0.453   0.533   8.435   9.421
   31        0.454   0.537   8.439   9.430
   32        1.105   1.351   0.133   2.589
   33        1.105   1.351   0.133   2.589
   34        1.104   1.339   0.134   2.577
   35        1.104   1.339   0.134   2.577
   36        1.105   1.343   0.134   2.582
   37        1.105   1.343   0.134   2.582
   38        1.105   1.350   0.133   2.588
   39        1.105   1.350   0.133   2.588
   40        1.105   1.351   0.133   2.589
   41        1.105   1.350   0.133   2.589
   42        1.105   1.349   0.134   2.588
   43        1.105   1.350   0.133   2.588
   44        1.105   1.350   0.133   2.589
   45        1.105   1.351   0.133   2.589
   46        1.105   1.339   0.134   2.578
   47        1.105   1.350   0.133   2.588
   48        0.330   0.383   6.292   7.005
tot         29.170  34.955 219.442 283.567

 magnetization (x)

[...]

  FORCE on cell =-STRESS in cart. coord.  units (eV):
  Direction    XX          YY          ZZ          XY          YZ          ZX
  Alpha Z  1523.38261  1523.38261  1523.38261
  Ewald   -7566.13440 -6988.04761 -7443.30798    -0.00000    -0.00000     0.12636
  Hartree  2119.09059  2395.83099  2024.59704    -0.00000    -0.00000    -1.12845
  E(xc)   -1655.59108 -1657.92213 -1655.77329     0.00000    -0.00000     0.13593
  Local    -400.85723 -1212.32761  -399.64071     0.00000     0.00000     2.09290
  n-local  -254.43324  -233.11674  -237.45447    -0.12935    -0.86363     0.51705
  augment  3343.26581  3324.79065  3316.10587     0.00000     0.00000    -0.80624
  Kinetic  2888.74240  2854.99377  2867.25083    -0.08334     0.09511    -1.04241
  Fock        0.00000     0.00000     0.00000     0.00000     0.00000     0.00000
  Total      -2.53455     7.58392    -4.84011     0.00000     0.00000    -0.10485
  in kB      -6.44104    19.27302   -12.30017     0.00000     0.00000    -0.26646

 VOLUME and BASIS-vectors are now :
  energy-cutoff  :      450.00
  volume of cell :      630.46
      direct lattice vectors                 reciprocal lattice vectors
    12.035889782  0.000000000  0.000000000     0.083084842  0.000000000  0.000000000
     0.000000000  7.435625475  0.000000000     0.000000000  0.134487677  0.000000000
     0.000000000  0.000000000  7.044641858     0.000000000  0.000000000  0.141951858

  length of vectors
    12.035889782  7.435625475  7.044641858     0.083084842  0.134487677  0.141951858

 FORCES acting on ions
    electron-ion (+dipol)            ewald-force                    non-local-force                 convergence-correction
   0.105E+02 0.108E+01 0.357E+02   -.105E+02 -.101E+01 -.355E+02   -.580E+00 -.798E-02 0.163E+00   -.782E-01 -.476E-01 -.298E-01
   0.105E+02 -.108E+01 0.357E+02   -.105E+02 0.101E+01 -.355E+02   -.580E+00 0.798E-02 0.163E+00   -.782E-01 0.476E-01 -.298E-01
   0.687E+01 0.498E+01 -.306E+02   -.699E+01 -.497E+01 0.306E+02   -.612E+00 0.747E-01 -.654E-01   0.836E-01 -.115E+00 -.197E+00
   0.687E+01 -.498E+01 -.306E+02   -.699E+01 0.497E+01 0.306E+02   -.612E+00 -.747E-01 -.654E-01   0.836E-01 0.115E+00 -.197E+00
   0.140E+01 0.131E+01 0.358E+02   -.156E+01 -.128E+01 -.355E+02   -.637E+00 0.339E-01 0.159E+00   0.147E+00 -.562E-01 -.865E-01
   0.140E+01 -.131E+01 0.358E+02   -.156E+01 0.128E+01 -.355E+02   -.637E+00 -.339E-01 0.159E+00   0.147E+00 0.562E-01 -.865E-01
   0.588E+01 0.303E+00 -.356E+02   -.579E+01 -.277E+00 0.354E+02   -.607E+00 -.306E-02 -.146E+00   -.125E+00 -.253E-01 0.586E-01
   0.588E+01 -.303E+00 -.356E+02   -.579E+01 0.277E+00 0.354E+02   -.607E+00 0.306E-02 -.146E+00   -.125E+00 0.253E-01 0.586E-01
   -.595E+01 -.956E-15 0.357E+02   0.615E+01 -.284E-13 -.355E+02   0.601E+00 0.000E+00 0.148E+00   -.163E+00 0.189E-11 -.160E-02
   -.145E+01 0.157E-12 -.363E+02   0.150E+01 -.281E-13 0.362E+02   0.659E+00 0.000E+00 -.194E+00   -.956E-01 -.158E-11 0.112E-01
   -.624E+01 -.774E-13 0.355E+02   0.615E+01 -.421E-13 -.355E+02   0.645E+00 0.000E+00 0.166E+00   0.129E+00 0.976E-12 0.972E-01
   -.109E+02 -.217E-12 -.364E+02   0.108E+02 -.272E-13 0.362E+02   0.583E+00 0.000E+00 -.161E+00   0.142E+00 0.137E-11 0.424E-01
   -.597E+01 0.244E-12 0.357E+02   0.615E+01 -.139E-13 -.355E+02   0.616E+00 0.000E+00 0.154E+00   -.145E+00 -.294E-12 -.122E-01
   0.414E+01 0.122E-11 -.381E+02   -.373E+01 -.230E-13 0.378E+02   0.702E+00 0.000E+00 -.205E+00   -.303E+00 -.766E-12 0.824E-01
   -.163E+02 0.129E-11 -.381E+02   0.160E+02 -.140E-13 0.378E+02   0.569E+00 0.000E+00 -.176E+00   0.280E+00 -.666E-12 0.123E+00
   0.788E+02 0.157E+01 -.396E+02   -.782E+02 -.148E+01 0.403E+02   -.526E-01 -.146E-01 -.274E+00   -.323E+00 -.802E-01 0.474E-01
   0.788E+02 -.157E+01 -.396E+02   -.782E+02 0.148E+01 0.403E+02   -.526E-01 0.146E-01 -.274E+00   -.323E+00 0.802E-01 0.474E-01
   0.794E+02 0.989E+01 0.309E+02   -.790E+02 -.958E+01 -.320E+02   -.868E-01 0.296E-01 0.256E+00   -.544E-01 -.321E+00 0.271E+00
   0.794E+02 -.989E+01 0.309E+02   -.790E+02 0.958E+01 -.320E+02   -.868E-01 -.296E-01 0.256E+00   -.544E-01 0.321E+00 0.271E+00
   0.583E+02 0.889E+01 -.361E+02   -.584E+02 -.858E+01 0.368E+02   -.193E+00 0.367E-01 -.262E+00   0.544E+00 -.355E+00 -.189E-01
   0.583E+02 -.889E+01 -.361E+02   -.584E+02 0.858E+01 0.368E+02   -.193E+00 -.367E-01 -.262E+00   0.544E+00 0.355E+00 -.189E-01
   0.695E+02 0.644E+00 0.399E+02   -.690E+02 -.569E+00 -.406E+02   -.921E-01 -.695E-02 0.270E+00   -.182E+00 -.685E-01 -.107E+00
   0.695E+02 -.644E+00 0.399E+02   -.690E+02 0.569E+00 -.406E+02   -.921E-01 0.695E-02 0.270E+00   -.182E+00 0.685E-01 -.107E+00
   -.701E+02 0.858E-13 -.404E+02   0.699E+02 0.588E-13 0.412E+02   0.116E+00 0.000E+00 -.272E+00   -.205E+00 0.297E-11 -.796E-01
   -.656E+02 0.950E-13 0.421E+02   0.653E+02 0.371E-13 -.429E+02   0.188E+00 0.000E+00 0.295E+00   -.148E+00 -.136E-11 -.155E-01
   -.751E+02 0.219E-12 -.423E+02   0.745E+02 -.437E-13 0.432E+02   0.128E+00 0.000E+00 -.279E+00   0.309E+00 0.371E-11 -.391E-01
   -.773E+02 0.148E-13 0.409E+02   0.769E+02 0.263E-13 -.418E+02   0.323E-01 0.000E+00 0.295E+00   0.129E+00 0.650E-11 0.751E-01
   -.696E+02 0.114E-11 -.406E+02   0.694E+02 0.595E-13 0.414E+02   0.103E+00 0.000E+00 -.259E+00   -.228E+00 0.169E-11 -.415E-01
   -.553E+02 -.165E-11 0.491E+02   0.553E+02 0.376E-13 -.496E+02   0.187E+00 0.000E+00 0.315E+00   -.392E+00 0.383E-11 -.272E+00
   -.790E+02 0.251E-11 -.524E+02   0.783E+02 -.233E-13 0.528E+02   0.272E-01 0.000E+00 -.234E+00   0.353E+00 -.939E-11 0.257E+00
   -.803E+02 -.516E-11 0.420E+02   0.797E+02 0.418E-13 -.427E+02   0.119E+00 0.000E+00 0.251E+00   0.220E+00 -.662E-11 -.775E-03
   -.315E+02 0.355E+00 0.146E+02   0.320E+02 -.327E+00 -.142E+02   -.748E+00 -.874E-05 -.692E+00   -.962E-01 -.305E-01 -.351E-01
   -.315E+02 -.355E+00 0.146E+02   0.320E+02 0.327E+00 -.142E+02   -.748E+00 0.874E-05 -.692E+00   -.962E-01 0.305E-01 -.351E-01
   -.268E+02 0.603E+01 -.134E+02   0.272E+02 -.584E+01 0.132E+02   -.555E+00 0.208E+00 0.706E+00   -.147E+00 -.183E+00 -.711E-02
   -.268E+02 -.603E+01 -.134E+02   0.272E+02 0.584E+01 0.132E+02   -.555E+00 -.208E+00 0.706E+00   -.147E+00 0.183E+00 -.711E-02
   -.380E+02 0.437E+01 0.115E+02   0.381E+02 -.428E+01 -.113E+02   -.847E+00 0.104E+00 -.772E+00   0.202E+00 -.124E+00 0.106E+00
   -.380E+02 -.437E+01 0.115E+02   0.381E+02 0.428E+01 -.113E+02   -.847E+00 -.104E+00 -.772E+00   0.202E+00 0.124E+00 0.106E+00
   -.354E+02 0.486E+00 -.147E+02   0.357E+02 -.433E+00 0.144E+02   -.759E+00 0.199E-02 0.688E+00   0.274E-01 -.440E-01 0.394E-01
   -.354E+02 -.486E+00 -.147E+02   0.357E+02 0.433E+00 0.144E+02   -.759E+00 -.199E-02 0.688E+00   0.274E-01 0.440E-01 0.394E-01
   0.347E+02 0.549E-13 0.149E+02   -.350E+02 -.403E-14 -.146E+02   0.760E+00 0.000E+00 -.683E+00   -.933E-01 0.337E-12 0.368E-01
   0.352E+02 -.238E-12 -.151E+02   -.355E+02 0.144E-13 0.148E+02   0.751E+00 0.000E+00 0.684E+00   -.122E-01 -.180E-12 -.297E-01
   0.313E+02 -.960E-13 0.158E+02   -.317E+02 0.418E-13 -.155E+02   0.749E+00 0.000E+00 -.691E+00   0.124E+00 0.268E-11 -.297E-01
   0.320E+02 -.139E-13 -.148E+02   -.322E+02 -.114E-13 0.145E+02   0.744E+00 0.000E+00 0.686E+00   -.501E-01 0.147E-11 -.387E-01
   0.352E+02 0.721E-13 0.150E+02   -.354E+02 -.518E-14 -.148E+02   0.759E+00 0.000E+00 -.687E+00   -.106E+00 0.951E-13 0.280E-01
   0.365E+02 -.108E-11 -.161E+02   -.369E+02 0.112E-13 0.158E+02   0.750E+00 0.000E+00 0.699E+00   -.208E-01 -.474E-12 0.206E-01
   0.278E+02 0.149E-11 0.209E+02   -.282E+02 0.415E-13 -.202E+02   0.565E+00 0.000E+00 -.474E+00   0.190E+00 -.180E-11 -.210E+00
   0.315E+02 0.814E-12 -.149E+02   -.318E+02 -.128E-13 0.146E+02   0.748E+00 0.000E+00 0.695E+00   -.290E-01 -.344E-12 -.289E-01
   -.717E+01 -.222E-11 0.407E+02   0.703E+01 0.768E-13 -.406E+02   0.538E+00 0.000E+00 -.532E-01   0.137E+00 0.376E-11 0.758E-01
   -.115E+00 0.432E-10 -.203E+00   -.551E-13 -.453E-14 0.128E-12   0.102E+00 0.000E+00 0.767E-01   0.187E-01 -.130E-10 0.133E+00

 POSITION                                       TOTAL-FORCE (eV/Angst)
      2.91148      1.85891      1.25606        -0.667495      0.013223      0.275082
      2.91148      5.57672      1.25606        -0.667495     -0.013223      0.275082
      5.92045      1.85891      2.26626        -0.645519     -0.028197     -0.252823
      5.92045      5.57672      2.26626        -0.645519      0.028197     -0.252823
      8.92943      1.85891      1.25606        -0.641003      0.006723      0.276978
      8.92943      5.57672      1.25606        -0.641003     -0.006723      0.276978
     11.93840      1.85891      2.26626        -0.637047     -0.002404     -0.283721
     11.93840      5.57672      2.26626        -0.637047      0.002404     -0.283721
      0.09749      0.00000      4.77838         0.646600      0.000000      0.281902
      3.10646      0.00000      5.78858         0.611754      0.000000     -0.269214
      6.11544      0.00000      4.77838         0.692863      0.000000      0.251065
      9.12441      0.00000      5.78858         0.669962      0.000000     -0.276107
      0.09749      3.71781      4.77838         0.655226      0.000000      0.290269
      3.10646      3.71781      5.78858         0.804923      0.000000     -0.333487
      9.12441      3.71781      5.78858         0.610623      0.000000     -0.309196
      2.12674      1.85891      3.89780         0.274628     -0.001224      0.489833
      2.12674      5.57672      3.89780         0.274628      0.001224      0.489833
      5.13571      1.85891      6.66916         0.249292      0.022596     -0.510192
      5.13571      5.57672      6.66916         0.249292     -0.022596     -0.510192
      8.14469      1.85891      3.89780         0.203319     -0.007509      0.465316
      8.14469      5.57672      3.89780         0.203319      0.007509      0.465316
     11.15366      1.85891      6.66916         0.261554     -0.000599     -0.488114
     11.15366      5.57672      6.66916         0.261554      0.000599     -0.488114
      0.88223      0.00000      0.37548        -0.252691      0.000000      0.492254
      3.89120      0.00000      3.14684        -0.247567      0.000000     -0.502426
      6.90018      0.00000      0.37548        -0.207080      0.000000      0.496891
      9.90915      0.00000      3.14684        -0.271537      0.000000     -0.479217
      0.88223      3.71781      0.37548        -0.260829      0.000000      0.492294
      3.89120      3.71781      3.14684        -0.201821      0.000000     -0.459748
      6.90018      3.71781      0.37548        -0.338848      0.000000      0.409405
      9.90915      3.71781      3.14684        -0.272090      0.000000     -0.492466
      1.50750      1.85891      6.18731        -0.427944     -0.002835     -0.387149
      1.50750      5.57672      6.18731        -0.427944      0.002835     -0.387149
      4.51647      1.85891      4.37965        -0.289996      0.215944      0.466394
      4.51647      5.57672      4.37965        -0.289996     -0.215944      0.466394
      7.52544      1.85891      6.18731        -0.529561      0.076474     -0.453828
      7.52544      5.57672      6.18731        -0.529561     -0.076474     -0.453828
     10.53441      1.85891      4.37965        -0.436041      0.010789      0.402718
     10.53441      5.57672      4.37965        -0.436041     -0.010789      0.402718
      1.50148      0.00000      2.66499         0.409819      0.000000     -0.408139
      4.51045      0.00000      0.85733         0.463289      0.000000      0.360263
      7.51942      0.00000      2.66499         0.422968      0.000000     -0.397986
     10.52839      0.00000      0.85733         0.443452      0.000000      0.398622
      1.50148      3.71781      2.66499         0.429653      0.000000     -0.400420
      4.51045      3.71781      0.85733         0.411561      0.000000      0.393262
      7.51942      3.71781      2.66499         0.379784      0.000000     -0.045246
     10.52839      3.71781      0.85733         0.431341      0.000000      0.399175
      6.11544      3.71781      4.77838         0.540270      0.000000      0.107263
    total drift:                                0.005443      0.000000      0.006462

  FREE ENERGIE OF THE ION-ELECTRON SYSTEM (eV)
  free  energy   TOTEN  =      -313.17752308 eV

  energy  without entropy=     -313.17752308  energy(sigma->0) =     -313.17752308

|           W    W    AA    RRRRR   N    N  II  N    N   GGGG   !!!           |
|           W    W   A  A   R    R  NN   N  II  NN   N  G    G  !!!           |
|           W    W  A    A  R    R  N N  N  II  N N  N  G       !!!           |
|           W WW W  AAAAAA  RRRRR   N  N N  II  N  N N  G  GGG   !            |
|           WW  WW  A    A  R   R   N   NN  II  N   NN  G    G                |
|           W    W  A    A  R    R  N    N  II  N    N   GGGG   !!!           |
|     Tetrahedron method does not include variations of the Fermi             |
|     occupations, so forces and stress will be inaccurate. We suggest        |
|     using a different smearing scheme ISMEAR = 1 or 2 for metals in         |
|     relaxations.                                                            |

 total charge

[...]

 magnetization (x)

# of ion       s       p       d       tot
    1        0.018   0.011   2.992   3.021
    2        0.018   0.011   2.992   3.021
    3        0.019   0.012   3.000   3.031
    4        0.019   0.012   3.000   3.031
    5        0.018   0.011   2.988   3.017
    6        0.018   0.011   2.988   3.017
    7        0.018   0.010   2.986   3.015
    8        0.018   0.010   2.986   3.015
    9        0.018   0.010   2.992   3.020
   10        0.019   0.011   2.993   3.022
   11        0.018   0.011   2.978   3.007
   12        0.018   0.011   2.999   3.028
   13        0.018   0.010   2.996   3.025
   14        0.019   0.011   2.985   3.014
   15        0.019   0.011   2.980   3.009
   16       -0.019  -0.042   0.128   0.067
   17       -0.019  -0.042   0.128   0.067
   18       -0.018  -0.040   0.115   0.057
   19       -0.018  -0.040   0.115   0.057
   20       -0.018  -0.040   0.123   0.065
   21       -0.018  -0.040   0.123   0.065
   22       -0.019  -0.042   0.126   0.064
   23       -0.019  -0.042   0.126   0.064
   24       -0.019  -0.042   0.120   0.059
   25       -0.018  -0.040   0.127   0.069
   26       -0.019  -0.043   0.123   0.061
   27       -0.019  -0.041   0.127   0.067
   28       -0.019  -0.042   0.121   0.060
   29       -0.018  -0.041   0.114   0.055
   30       -0.018  -0.039   0.123   0.066
   31       -0.020  -0.043   0.126   0.063
   32       -0.016  -0.118   0.002  -0.131
   33       -0.016  -0.118   0.002  -0.131
   34       -0.014  -0.108   0.000  -0.121
   35       -0.014  -0.108   0.000  -0.121
   36       -0.015  -0.110   0.001  -0.123
   37       -0.015  -0.110   0.001  -0.123
   38       -0.016  -0.117   0.002  -0.131
   39       -0.016  -0.117   0.002  -0.131
   40       -0.016  -0.118   0.002  -0.132
   41       -0.016  -0.117   0.003  -0.130
   42       -0.016  -0.116   0.002  -0.130
   43       -0.016  -0.117   0.002  -0.131
   44       -0.016  -0.118   0.002  -0.131
   45       -0.017  -0.117   0.003  -0.131
   46       -0.013  -0.108   0.000  -0.122
   47       -0.016  -0.118   0.002  -0.132
   48        0.010  -0.003   2.238   2.245
tot         -0.260  -2.338  49.091  46.492

 BZINTS: Fermi energy:    7.325713;  337.000000 electrons
         Band energy: 0.135459E+04;  BLOECHL correction:   -0.029985