 vasp.6.1.1 19Jun20 (build Nov 30 2020 11:51:22) complex

 executed on             LinuxIFC date 2021.03.24  01:30:39

 INCAR:
 POTCAR:    PAW_PBE Mn 06Sep2000
 POTCAR:    PAW_PBE Ni 02Aug2007
 POTCAR:    PAW_PBE Ge 05Jan2001
 POTCAR:    PAW_PBE Fe 06Sep2000
 POTCAR:    PAW_PBE Mn 06Sep2000
   VRHFIN =Mn: d6 s1

   TITEL  = PAW_PBE Mn 06Sep2000
   POMASS =   54.938; ZVAL   =    7.000    mass and valenz
   ENMAX  =  269.864; ENMIN  =  202.398 eV

   TITEL  = PAW_PBE Ni 02Aug2007
   POMASS =   58.690; ZVAL   =   10.000    mass and valenz
   ENMAX  =  269.532; ENMIN  =  202.149 eV

   TITEL  = PAW_PBE Ge 05Jan2001
   POMASS =   72.610; ZVAL   =    4.000    mass and valenz
   ENMAX  =  173.807; ENMIN  =  130.355 eV

   TITEL  = PAW_PBE Fe 06Sep2000
   POMASS =   55.847; ZVAL   =    8.000    mass and valenz
   ENMAX  =  267.882; ENMIN  =  200.911 eV

  PAW_PBE Mn 06Sep2000                  :
  PAW_PBE Ni 02Aug2007                  :
  PAW_PBE Ge 05Jan2001                  :
  PAW_PBE Fe 06Sep2000                  :

 POSCAR: MnNiGe_orth
  positions in direct lattice
  velocities in cartesian coordinates
 exchange correlation table for  LEXCH =        8
   RHO(1)=    0.500       N(1)  =     2000
   RHO(2)=  100.500       N(2)  =     4000

 ion  position               nearest neighbor table
   1  0.242  0.250  0.178-  41 2.51  45 2.51  32 2.56  44 2.75  40 2.75  16 2.78  18 2.79  29 2.86
                            25 2.86  24 2.92  28 2.92  14 3.16  10 3.16
   2  0.242  0.750  0.178-  41 2.51  45 2.51  33 2.56  44 2.75  40 2.75  17 2.78  19 2.79  29 2.86
                            25 2.86  24 2.92  28 2.92  14 3.16  10 3.16
   3  0.492  0.250  0.322-  42 2.51  46 2.51  34 2.56  45 2.75  41 2.75  18 2.78  20 2.79  30 2.86
                            26 2.86  25 2.92  29 2.92  11 3.16
   4  0.492  0.750  0.322-  42 2.51  46 2.51  35 2.56  45 2.75  41 2.75  19 2.78  21 2.79  30 2.86
                            26 2.86  25 2.92  29 2.92  11 3.16
   5  0.742  0.250  0.178-  43 2.51  47 2.51  36 2.56  46 2.75  42 2.75  20 2.78  22 2.79  31 2.86
                            27 2.86  26 2.92  30 2.92  15 3.16  12 3.16
   6  0.742  0.750  0.178-  43 2.51  47 2.51  37 2.56  46 2.75  42 2.75  21 2.78  23 2.79  31 2.86
                            27 2.86  26 2.92  30 2.92  15 3.16  12 3.16
   7  0.992  0.250  0.322-  40 2.51  44 2.51  38 2.56  43 2.75  47 2.75  22 2.78  16 2.79  28 2.86
                            24 2.86  31 2.92  27 2.92  13 3.16   9 3.16
   8  0.992  0.750  0.322-  40 2.51  44 2.51  39 2.56  43 2.75  47 2.75  23 2.78  17 2.79  28 2.86
                            24 2.86  31 2.92  27 2.92  13 3.16   9 3.16
   9  0.008  0.000  0.678-  38 2.51  39 2.51  40 2.56  33 2.75  32 2.75  24 2.78  27 2.79  23 2.86
                            22 2.86  17 2.92  16 2.92   8 3.16   7 3.16
  10  0.258  0.000  0.822-  32 2.51  33 2.51  41 2.56  35 2.75  34 2.75  25 2.78  24 2.79  17 2.86
                            16 2.86  19 2.92  18 2.92   2 3.16   1 3.16
  11  0.508  0.000  0.678-  34 2.51  35 2.51  42 2.56  37 2.75  36 2.75  26 2.78  25 2.79  19 2.86
                            18 2.86  21 2.92  20 2.92   4 3.16   3 3.16
  12  0.758  0.000  0.822-  36 2.51  37 2.51  43 2.56  39 2.75  38 2.75  27 2.78  26 2.79  21 2.86
                            20 2.86  23 2.92  22 2.92   6 3.16   5 3.16
  13  0.008  0.500  0.678-  38 2.51  39 2.51  44 2.56  33 2.75  32 2.75  28 2.78  31 2.79  23 2.86
                            22 2.86  17 2.92  16 2.92   8 3.16   7 3.16
  14  0.258  0.500  0.822-  32 2.51  33 2.51  45 2.56  35 2.75  34 2.75  29 2.78  28 2.79  17 2.86
                            16 2.86  19 2.92  18 2.92   2 3.16   1 3.16
  15  0.758  0.500  0.822-  36 2.51  37 2.51  47 2.56  39 2.75  38 2.75  31 2.78  30 2.79  21 2.86
                            20 2.86  23 2.92  22 2.92   6 3.16   5 3.16
  16  0.177  0.250  0.553-  40 2.34  44 2.34  32 2.40  34 2.46  25 2.70  29 2.70   1 2.78   7 2.79
                            10 2.86  14 2.86  13 2.92   9 2.92
  17  0.177  0.750  0.553-  40 2.34  44 2.34  33 2.40  35 2.46  25 2.70  29 2.70   2 2.78   8 2.79
                            10 2.86  14 2.86  13 2.92   9 2.92
  18  0.427  0.250  0.947-  41 2.34  45 2.34  34 2.40  36 2.46  26 2.70  30 2.70   3 2.78   1 2.79
                            11 2.86  48 2.86  14 2.92  10 2.92
  19  0.427  0.750  0.947-  41 2.34  45 2.34  35 2.40  37 2.46  26 2.70  30 2.70   4 2.78   2 2.79
                            11 2.86  48 2.86  14 2.92  10 2.92
  20  0.677  0.250  0.553-  42 2.34  46 2.34  36 2.40  38 2.46  27 2.70  31 2.70   5 2.78   3 2.79
                            12 2.86  15 2.86  11 2.92  48 2.92
  21  0.677  0.750  0.553-  42 2.34  46 2.34  37 2.40  39 2.46  27 2.70  31 2.70   6 2.78   4 2.79
                            12 2.86  15 2.86  11 2.92  48 2.92
  22  0.927  0.250  0.947-  43 2.34  47 2.34  38 2.40  32 2.46  24 2.70  28 2.70   7 2.78   5 2.79
                             9 2.86  13 2.86  12 2.92  15 2.92
  23  0.927  0.750  0.947-  43 2.34  47 2.34  39 2.40  33 2.46  24 2.70  28 2.70   8 2.78   6 2.79
                             9 2.86  13 2.86  12 2.92  15 2.92
  24  0.073  0.000  0.053-  32 2.34  33 2.34  40 2.40  43 2.46  22 2.70  23 2.70   9 2.78  10 2.79
                             7 2.86   8 2.86   1 2.92   2 2.92
  25  0.323  0.000  0.447-  34 2.34  35 2.34  41 2.40  40 2.46  16 2.70  17 2.70  10 2.78  11 2.79
                             1 2.86   2 2.86   3 2.92   4 2.92
  26  0.573  0.000  0.053-  36 2.34  37 2.34  42 2.40  41 2.46  18 2.70  19 2.70  11 2.78  12 2.79
                             3 2.86   4 2.86   5 2.92   6 2.92
  27  0.823  0.000  0.447-  38 2.34  39 2.34  43 2.40  42 2.46  20 2.70  21 2.70  12 2.78   9 2.79
                             5 2.86   6 2.86   7 2.92   8 2.92
  28  0.073  0.500  0.053-  32 2.34  33 2.34  44 2.40  47 2.46  22 2.70  23 2.70  13 2.78  14 2.79
                             7 2.86   8 2.86   1 2.92   2 2.92
  29  0.323  0.500  0.447-  34 2.34  35 2.34  45 2.40  44 2.46  16 2.70  17 2.70  14 2.78  48 2.79
                             1 2.86   2 2.86   3 2.92   4 2.92
  30  0.573  0.500  0.053-  36 2.34  37 2.34  46 2.40  45 2.46  18 2.70  19 2.70  48 2.78  15 2.79
                             3 2.86   4 2.86   5 2.92   6 2.92
  31  0.823  0.500  0.447-  38 2.34  39 2.34  47 2.40  46 2.46  20 2.70  21 2.70  15 2.78  13 2.79
                             5 2.86   6 2.86   7 2.92   8 2.92
  32  0.125  0.250  0.878-  24 2.34  28 2.34  16 2.40  22 2.46  10 2.51  14 2.51   1 2.56  13 2.75
                             9 2.75
  33  0.125  0.750  0.878-  24 2.34  28 2.34  17 2.40  23 2.46  10 2.51  14 2.51   2 2.56  13 2.75
                             9 2.75
  34  0.375  0.250  0.622-  25 2.34  29 2.34  18 2.40  16 2.46  11 2.51  48 2.51   3 2.56  14 2.75
                            10 2.75
  35  0.375  0.750  0.622-  25 2.34  29 2.34  19 2.40  17 2.46  11 2.51  48 2.51   4 2.56  14 2.75
                            10 2.75
  36  0.625  0.250  0.878-  26 2.34  30 2.34  20 2.40  18 2.46  12 2.51  15 2.51   5 2.56  11 2.75
                            48 2.75
  37  0.625  0.750  0.878-  26 2.34  30 2.34  21 2.40  19 2.46  12 2.51  15 2.51   6 2.56  11 2.75
                            48 2.75
  38  0.875  0.250  0.622-  27 2.34  31 2.34  22 2.40  20 2.46   9 2.51  13 2.51   7 2.56  12 2.75
                            15 2.75
  39  0.875  0.750  0.622-  27 2.34  31 2.34  23 2.40  21 2.46   9 2.51  13 2.51   8 2.56  12 2.75
                            15 2.75
  40  0.125  0.000  0.378-  16 2.34  17 2.34  24 2.40  25 2.46   7 2.51   8 2.51   9 2.56   2 2.75
                             1 2.75
  41  0.375  0.000  0.122-  18 2.34  19 2.34  25 2.40  26 2.46   1 2.51   2 2.51  10 2.56   4 2.75
                             3 2.75
  42  0.625  0.000  0.378-  20 2.34  21 2.34  26 2.40  27 2.46   3 2.51   4 2.51  11 2.56   6 2.75
                             5 2.75
  43  0.875  0.000  0.122-  22 2.34  23 2.34  27 2.40  24 2.46   5 2.51   6 2.51  12 2.56   8 2.75
                             7 2.75
  44  0.125  0.500  0.378-  16 2.34  17 2.34  28 2.40  29 2.46   7 2.51   8 2.51  13 2.56   2 2.75
                             1 2.75
  45  0.375  0.500  0.122-  18 2.34  19 2.34  29 2.40  30 2.46   1 2.51   2 2.51  14 2.56   4 2.75
                             3 2.75
  46  0.625  0.500  0.378-  20 2.34  21 2.34  30 2.40  31 2.46   3 2.51   4 2.51  48 2.56   6 2.75
                             5 2.75
  47  0.875  0.500  0.122-  22 2.34  23 2.34  31 2.40  28 2.46   5 2.51   6 2.51  15 2.56   8 2.75
                             7 2.75
  48  0.508  0.500  0.678-  34 2.51  35 2.51  46 2.56  37 2.75  36 2.75  30 2.78  29 2.79  19 2.86
                            18 2.86  21 2.92  20 2.92

  LATTYP: Found a simple orthorhombic cell.
 ALAT       =     7.1150882767
 B/A-ratio  =     1.0555008508
 C/A-ratio  =     1.7085169161

  Lattice vectors:

 A1 = (   0.0000000000,   0.0000000000,  -7.1150882767)
 A2 = (   0.0000000000,  -7.5099817296,   0.0000000000)
 A3 = ( -12.1562486800,   0.0000000000,   0.0000000000)

Analysis of symmetry for initial positions (statically):
 Subroutine PRICEL returns:
 Original cell was already a primitive cell.

 Routine SETGRP: Setting up the symmetry group for a
 simple orthorhombic supercell.

 Subroutine GETGRP returns: Found  2 space group operations
 (whereof  2 operations were pure point group operations)
 out of a pool of  8 trial point group operations.

The static configuration has the point symmetry C_1h.

Analysis of symmetry for dynamics (positions and initial velocities):
 Subroutine PRICEL returns:
 Original cell was already a primitive cell.

[...]

The dynamic configuration has the point symmetry C_1h.

Analysis of structural, dynamic, and magnetic symmetry:
 Subroutine PRICEL returns:
 Original cell was already a primitive cell.

 Routine SETGRP: Setting up the symmetry group for a
 simple orthorhombic supercell.

 Subroutine GETGRP returns: Found  2 space group operations
 (whereof  2 operations were pure point group operations)
 out of a pool of  8 trial point group operations.

The magnetic configuration has the point symmetry C_1h.

 Subroutine INISYM returns: Found  2 space group operations
 (whereof  2 operations are pure point group operations),
 and found     1 'primitive' translations

                                     Primitive cell

  volume of cell :     649.5592

  direct lattice vectors                    reciprocal lattice vectors
    12.156248680  0.000000000  0.000000000     0.082262220  0.000000000  0.000000000
     0.000000000  7.509981730  0.000000000     0.000000000  0.133156116  0.000000000
     0.000000000  0.000000000  7.115088277     0.000000000  0.000000000  0.140546394

  length of vectors
    12.156248680  7.509981730  7.115088277     0.082262220  0.133156116  0.140546394

  position of ions in fractional coordinates (direct lattice)
     0.241899997  0.250000000  0.178299993
     0.241899997  0.750000000  0.178299993
     0.491899997  0.250000000  0.321700007
     0.491899997  0.750000000  0.321700007
     0.741900027  0.250000000  0.178299993
     0.741900027  0.750000000  0.178299993
[...]

# of ion       s       p       d       tot
    1        0.255   0.283   5.048   5.586
    2        0.255   0.283   5.048   5.586
    3        0.256   0.283   5.046   5.584
    4        0.256   0.283   5.046   5.584
    5        0.255   0.283   5.049   5.587
    6        0.255   0.283   5.049   5.587
    7        0.255   0.283   5.049   5.587
    8        0.255   0.283   5.049   5.587
    9        0.255   0.283   5.049   5.587
   10        0.255   0.283   5.048   5.586
   11        0.256   0.283   5.049   5.588
   12        0.255   0.283   5.048   5.586
   13        0.255   0.283   5.048   5.586
   14        0.255   0.282   5.048   5.585
   15        0.255   0.282   5.049   5.586
   16        0.442   0.510   8.426   9.377
   17        0.442   0.510   8.426   9.377
   18        0.442   0.506   8.426   9.374
   19        0.442   0.506   8.426   9.374
   20        0.441   0.507   8.425   9.374
   21        0.441   0.507   8.425   9.374
   22        0.442   0.510   8.426   9.377
   23        0.442   0.510   8.426   9.377
   24        0.442   0.510   8.426   9.377
   25        0.442   0.508   8.427   9.377
   26        0.442   0.510   8.426   9.378
   27        0.442   0.509   8.427   9.378
   28        0.442   0.510   8.426   9.377
   29        0.441   0.508   8.425   9.374
   30        0.442   0.506   8.425   9.373
   31        0.442   0.510   8.425   9.378
   32        1.103   1.323   0.123   2.550
   33        1.103   1.323   0.123   2.550
   34        1.103   1.312   0.124   2.539
   35        1.103   1.312   0.124   2.539
   36        1.104   1.316   0.124   2.544
   37        1.104   1.316   0.124   2.544
   38        1.103   1.324   0.123   2.550
   39        1.103   1.324   0.123   2.550
   40        1.103   1.324   0.123   2.550
   41        1.104   1.323   0.123   2.550
   42        1.103   1.323   0.124   2.550
   43        1.103   1.323   0.123   2.550
   44        1.103   1.323   0.123   2.550
   45        1.103   1.324   0.123   2.551
   46        1.103   1.312   0.124   2.540
   47        1.103   1.323   0.124   2.550
   48        0.324   0.366   6.236   6.926
tot         28.874  33.870 218.746 281.490

 magnetization (x)

[...]

  FORCE on cell =-STRESS in cart. coord.  units (eV):
  Direction    XX          YY          ZZ          XY          YZ          ZX
  Alpha Z  1478.58015  1478.58015  1478.58015
  Ewald   -7491.22218 -6918.85902 -7369.61186     0.00000     0.00000     0.12511
  Hartree  2147.81919  2425.97470  2056.67758    -0.00000    -0.00000    -0.81920
  E(xc)   -1651.69883 -1653.94658 -1652.00107     0.00000     0.00000     0.08309
  Local    -451.31375 -1261.14743  -454.77008     0.00000     0.00000     1.27595
  n-local  -267.15210  -246.82252  -251.24669    -0.17576    -0.84468     0.37774
  augment  3345.69478  3327.50189  3319.50413     0.00000    -0.00000    -0.57757
  Kinetic  2872.60774  2838.81052  2852.17018    -0.20304    -0.00503    -0.62762
  Fock        0.00000     0.00000     0.00000     0.00000     0.00000     0.00000
  Total     -16.68500    -9.90830   -20.69766     0.00000     0.00000    -0.16250
  in kB     -41.15458   -24.43943   -51.05204     0.00000     0.00000    -0.40081

 VOLUME and BASIS-vectors are now :
  energy-cutoff  :      450.00
  volume of cell :      649.56
      direct lattice vectors                 reciprocal lattice vectors
    12.156248680  0.000000000  0.000000000     0.082262220  0.000000000  0.000000000
     0.000000000  7.509981730  0.000000000     0.000000000  0.133156116  0.000000000
     0.000000000  0.000000000  7.115088277     0.000000000  0.000000000  0.140546394

  length of vectors
    12.156248680  7.509981730  7.115088277     0.082262220  0.133156116  0.140546394

 FORCES acting on ions
    electron-ion (+dipol)            ewald-force                    non-local-force                 convergence-correction
   0.103E+02 0.102E+01 0.349E+02   -.103E+02 -.992E+00 -.348E+02   -.586E+00 -.126E-01 0.201E+00   -.164E-01 -.131E-02 -.302E-02
   0.103E+02 -.102E+01 0.349E+02   -.103E+02 0.992E+00 -.348E+02   -.586E+00 0.126E-01 0.201E+00   -.164E-01 0.131E-02 -.302E-02
   0.690E+01 0.479E+01 -.301E+02   -.685E+01 -.487E+01 0.300E+02   -.619E+00 0.681E-01 -.113E+00   -.161E-02 -.470E-02 -.802E-02
   0.690E+01 -.479E+01 -.301E+02   -.685E+01 0.487E+01 0.300E+02   -.619E+00 -.681E-01 -.113E+00   -.161E-02 0.470E-02 -.802E-02
   0.160E+01 0.123E+01 0.349E+02   -.152E+01 -.125E+01 -.348E+02   -.661E+00 0.279E-01 0.197E+00   0.159E-01 -.106E-02 -.342E-02
   0.160E+01 -.123E+01 0.349E+02   -.152E+01 0.125E+01 -.348E+02   -.661E+00 -.279E-01 0.197E+00   0.159E-01 0.106E-02 -.342E-02
   0.571E+01 0.275E+00 -.347E+02   -.567E+01 -.272E+00 0.347E+02   -.621E+00 -.612E-02 -.189E+00   0.286E-02 -.103E-02 -.778E-02
   0.571E+01 -.275E+00 -.347E+02   -.567E+01 0.272E+00 0.347E+02   -.621E+00 0.612E-02 -.189E+00   0.286E-02 0.103E-02 -.778E-02
   -.607E+01 -.124E-12 0.349E+02   0.603E+01 0.116E-13 -.348E+02   0.614E+00 0.000E+00 0.186E+00   0.285E-03 0.395E-13 0.678E-02
   -.159E+01 0.700E-13 -.355E+02   0.147E+01 -.118E-13 0.355E+02   0.691E+00 0.000E+00 -.230E+00   -.163E-01 -.117E-13 0.401E-02
   -.603E+01 0.118E-12 0.349E+02   0.603E+01 0.277E-13 -.348E+02   0.644E+00 0.000E+00 0.197E+00   -.178E-03 0.534E-13 0.226E-02
   -.106E+02 -.378E-14 -.356E+02   0.106E+02 0.104E-13 0.355E+02   0.584E+00 0.000E+00 -.195E+00   0.166E-01 -.124E-13 0.343E-02
   -.608E+01 0.984E-13 0.349E+02   0.603E+01 0.121E-13 -.348E+02   0.630E+00 0.000E+00 0.191E+00   0.190E-03 0.422E-13 0.638E-02
   0.368E+01 0.118E-11 -.372E+02   -.366E+01 -.115E-13 0.371E+02   0.704E+00 0.000E+00 -.239E+00   -.216E-01 -.179E-13 0.558E-02
   -.158E+02 0.157E-11 -.372E+02   0.157E+02 0.973E-14 0.371E+02   0.578E+00 0.000E+00 -.211E+00   0.213E-01 -.559E-14 0.664E-02
   0.770E+02 0.147E+01 -.388E+02   -.767E+02 -.145E+01 0.395E+02   -.469E-01 -.181E-01 -.249E+00   -.167E-01 -.267E-02 -.137E-03
   0.770E+02 -.147E+01 -.388E+02   -.767E+02 0.145E+01 0.395E+02   -.469E-01 0.181E-01 -.249E+00   -.167E-01 0.267E-02 -.137E-03
   0.778E+02 0.938E+01 0.306E+02   -.775E+02 -.939E+01 -.313E+02   -.851E-01 0.449E-01 0.225E+00   -.165E-01 -.114E-01 0.122E-01
   0.778E+02 -.938E+01 0.306E+02   -.775E+02 0.939E+01 -.313E+02   -.851E-01 -.449E-01 0.225E+00   -.165E-01 0.114E-01 0.122E-01
   0.577E+02 0.837E+01 -.355E+02   -.573E+02 -.841E+01 0.361E+02   -.213E+00 0.576E-01 -.228E+00   0.288E-01 -.109E-01 -.360E-02
   0.577E+02 -.837E+01 -.355E+02   -.573E+02 0.841E+01 0.361E+02   -.213E+00 -.576E-01 -.228E+00   0.288E-01 0.109E-01 -.360E-02
   0.680E+02 0.567E+00 0.391E+02   -.676E+02 -.558E+00 -.398E+02   -.104E+00 -.773E-02 0.245E+00   0.132E-01 -.244E-02 0.554E-02
   0.680E+02 -.567E+00 0.391E+02   -.676E+02 0.558E+00 -.398E+02   -.104E+00 0.773E-02 0.245E+00   0.132E-01 0.244E-02 0.554E-02
   -.689E+02 0.138E-12 -.397E+02   0.685E+02 0.795E-14 0.404E+02   0.131E+00 0.000E+00 -.240E+00   -.105E-01 0.168E-12 -.241E-02
   -.645E+02 0.167E-12 0.414E+02   0.641E+02 0.205E-13 -.421E+02   0.226E+00 0.000E+00 0.267E+00   -.226E-01 0.220E-12 -.202E-02
   -.734E+02 0.979E-13 -.416E+02   0.730E+02 -.205E-13 0.423E+02   0.984E-01 0.000E+00 -.260E+00   0.921E-02 0.163E-12 0.244E-03
   -.757E+02 -.698E-14 0.402E+02   0.754E+02 -.114E-13 -.409E+02   0.279E-01 0.000E+00 0.263E+00   0.166E-01 0.227E-12 -.173E-02
   -.684E+02 0.119E-11 -.399E+02   0.681E+02 0.942E-14 0.406E+02   0.122E+00 0.000E+00 -.228E+00   -.115E-01 0.191E-12 -.143E-03
   -.546E+02 -.149E-11 0.479E+02   0.543E+02 0.349E-13 -.486E+02   0.201E+00 0.000E+00 0.285E+00   -.344E-01 0.199E-12 -.115E-01
   -.772E+02 0.228E-11 -.512E+02   0.768E+02 0.361E-15 0.517E+02   0.340E-01 0.000E+00 -.171E+00   0.139E-01 0.155E-12 0.140E-01
   -.785E+02 -.513E-11 0.412E+02   0.781E+02 0.336E-14 -.419E+02   0.121E+00 0.000E+00 0.218E+00   0.186E-01 0.212E-12 -.458E-02
   -.310E+02 0.324E+00 0.143E+02   0.313E+02 -.321E+00 -.140E+02   -.745E+00 -.175E-02 -.654E+00   -.734E-02 -.151E-02 0.378E-02
   -.310E+02 -.324E+00 0.143E+02   0.313E+02 0.321E+00 -.140E+02   -.745E+00 0.175E-02 -.654E+00   -.734E-02 0.151E-02 0.378E-02
   -.264E+02 0.573E+01 -.132E+02   0.267E+02 -.573E+01 0.129E+02   -.555E+00 0.202E+00 0.666E+00   -.129E-01 -.660E-02 -.277E-03
   -.264E+02 -.573E+01 -.132E+02   0.267E+02 0.573E+01 0.129E+02   -.555E+00 -.202E+00 0.666E+00   -.129E-01 0.660E-02 -.277E-03
   -.370E+02 0.417E+01 0.114E+02   0.374E+02 -.419E+01 -.110E+02   -.853E+00 0.973E-01 -.729E+00   0.954E-02 -.472E-02 0.473E-02
   -.370E+02 -.417E+01 0.114E+02   0.374E+02 0.419E+01 -.110E+02   -.853E+00 -.973E-01 -.729E+00   0.954E-02 0.472E-02 0.473E-02
   -.347E+02 0.435E+00 -.144E+02   0.350E+02 -.425E+00 0.141E+02   -.765E+00 -.221E-05 0.651E+00   0.557E-02 -.140E-02 0.247E-02
   -.347E+02 -.435E+00 -.144E+02   0.350E+02 0.425E+00 0.141E+02   -.765E+00 0.221E-05 0.651E+00   0.557E-02 0.140E-02 0.247E-02
   0.339E+02 -.544E-13 0.146E+02   -.343E+02 0.245E-15 -.144E+02   0.764E+00 0.000E+00 -.645E+00   -.522E-02 -.696E-14 -.300E-02
   0.345E+02 0.776E-13 -.148E+02   -.348E+02 -.227E-13 0.145E+02   0.759E+00 0.000E+00 0.640E+00   -.731E-02 -.217E-14 -.171E-02
   0.308E+02 0.975E-13 0.155E+02   -.311E+02 -.271E-13 -.152E+02   0.751E+00 0.000E+00 -.649E+00   0.733E-02 -.877E-14 -.132E-02
   0.313E+02 0.814E-13 -.146E+02   -.316E+02 0.599E-14 0.143E+02   0.745E+00 0.000E+00 0.649E+00   0.833E-02 -.438E-14 -.332E-02
   0.344E+02 0.232E-13 0.148E+02   -.347E+02 0.953E-15 -.145E+02   0.764E+00 0.000E+00 -.649E+00   -.485E-02 -.130E-13 -.350E-02
   0.358E+02 -.702E-12 -.158E+02   -.361E+02 -.214E-13 0.155E+02   0.758E+00 0.000E+00 0.665E+00   -.794E-02 -.767E-14 0.572E-03
   0.274E+02 0.179E-11 0.202E+02   -.276E+02 -.298E-13 -.198E+02   0.569E+00 0.000E+00 -.440E+00   0.109E-01 -.146E-13 -.783E-02
   0.309E+02 0.924E-12 -.146E+02   -.312E+02 0.623E-14 0.143E+02   0.754E+00 0.000E+00 0.656E+00   0.850E-02 -.204E-14 -.288E-02
   -.698E+01 -.224E-11 0.399E+02   0.689E+01 -.165E-13 -.398E+02   0.538E+00 0.000E+00 0.188E-01   -.512E-03 0.588E-13 0.205E-02
   -.941E-01 0.463E-10 -.134E+00   0.306E-12 0.429E-13 0.213E-13   0.974E-01 0.000E+00 0.123E+00   -.264E-02 0.272E-11 0.109E-01

 POSITION                                       TOTAL-FORCE (eV/Angst)
      2.94060      1.87750      1.26862        -0.595700      0.010534      0.255224
      2.94060      5.63249      1.26862        -0.595700     -0.010534      0.255224
      5.97966      1.87750      2.28892        -0.575467     -0.023446     -0.252084
      5.97966      5.63249      2.28892        -0.575467      0.023446     -0.252084
      9.01872      1.87750      1.26862        -0.566963      0.000149      0.262567
      9.01872      5.63249      1.26862        -0.566963     -0.000149      0.262567
     12.05778      1.87750      2.28892        -0.581987     -0.004115     -0.265565
     12.05778      5.63249      2.28892        -0.581987      0.004115     -0.265565
      0.09847      0.00000      4.82616         0.577550      0.000000      0.263161
      3.13753      0.00000      5.84647         0.557498      0.000000     -0.249919
      6.17659      0.00000      4.82616         0.644233      0.000000      0.255964
      9.21565      0.00000      5.84647         0.601619      0.000000     -0.262235
      0.09847      3.75499      4.82616         0.586302      0.000000      0.270113
      3.13753      3.75499      5.84647         0.708510      0.000000     -0.305771
      9.21565      3.75499      5.84647         0.549254      0.000000     -0.290089
      2.14801      1.87750      3.93678         0.282480     -0.001112      0.436461
      2.14801      5.63249      3.93678         0.282480      0.001112      0.436461
      5.18707      1.87750      6.73585         0.260375      0.028734     -0.447749
      5.18707      5.63249      6.73585         0.260375     -0.028734     -0.447749
      8.22613      1.87750      3.93678         0.213266      0.002367      0.411790
      8.22613      5.63249      3.93678         0.213266     -0.002367      0.411790
     11.26520      1.87750      6.73585         0.258550     -0.000546     -0.433567
     11.26520      5.63249      6.73585         0.258550      0.000546     -0.433567
      0.89105      0.00000      0.37923        -0.249830      0.000000      0.440961
      3.93012      0.00000      3.17831        -0.232668      0.000000     -0.441440
      6.96918      0.00000      0.37923        -0.231552      0.000000      0.433134
     10.00824      0.00000      3.17831        -0.274874      0.000000     -0.429225
      0.89105      3.75499      0.37923        -0.254966      0.000000      0.445356
      3.93012      3.75499      3.17831        -0.207985      0.000000     -0.415185
      6.96918      3.75499      0.37923        -0.335688      0.000000      0.387636
     10.00824      3.75499      3.17831        -0.270756      0.000000     -0.445134
      1.52257      1.87750      6.24918        -0.443034     -0.000146     -0.346394
      1.52257      5.63249      6.24918        -0.443034      0.000146     -0.346394
      4.56163      1.87750      4.42345        -0.342722      0.201276      0.415136
      4.56163      5.63249      4.42345        -0.342722     -0.201276      0.415136
      7.60069      1.87750      6.24918        -0.521657      0.070490     -0.406487
      7.60069      5.63249      6.24918        -0.521657     -0.070490     -0.406487
     10.63976      1.87750      4.42345        -0.441756      0.009140      0.360530
     10.63976      5.63249      4.42345        -0.441756     -0.009140      0.360530
      1.51649      0.00000      2.69164         0.418702      0.000000     -0.349703
      4.55555      0.00000      0.86591         0.468531      0.000000      0.307557
      7.59462      0.00000      2.69164         0.435508      0.000000     -0.345428
     10.63368      0.00000      0.86591         0.450464      0.000000      0.346044
      1.51649      3.75499      2.69164         0.436703      0.000000     -0.343934
      4.55555      3.75499      0.86591         0.424422      0.000000      0.346438
      7.59462      3.75499      2.69164         0.420566      0.000000     -0.052537
     10.63368      3.75499      0.86591         0.439286      0.000000      0.345094
      6.17659      3.75499      4.82616         0.448398      0.000000      0.109422
    total drift:                                0.000645      0.000000      0.000729

  FREE ENERGIE OF THE ION-ELECTRON SYSTEM (eV)
  free  energy   TOTEN  =      -312.97634906 eV

  energy  without entropy=     -313.06126134  energy(sigma->0) =     -313.00465315

 total charge

[...]

 magnetization (x)

# of ion       s       p       d       tot
    1        0.019   0.011   3.074   3.105
    2        0.019   0.011   3.074   3.105
    3        0.020   0.012   3.089   3.121
    4        0.020   0.012   3.089   3.121
    5        0.019   0.011   3.071   3.101
    6        0.019   0.011   3.071   3.101
    7        0.019   0.010   3.067   3.096
    8        0.019   0.010   3.067   3.096
    9        0.019   0.010   3.067   3.097
   10        0.019   0.011   3.075   3.105
   11        0.019   0.012   3.062   3.092
   12        0.019   0.011   3.074   3.105
   13        0.019   0.010   3.073   3.103
   14        0.019   0.011   3.063   3.094
   15        0.020   0.011   3.056   3.087
   16       -0.019  -0.042   0.106   0.044
   17       -0.019  -0.042   0.106   0.044
   18       -0.018  -0.040   0.096   0.038
   19       -0.018  -0.040   0.096   0.038
   20       -0.018  -0.040   0.105   0.046
   21       -0.018  -0.040   0.105   0.046
   22       -0.019  -0.042   0.101   0.040
   23       -0.019  -0.042   0.101   0.040
   24       -0.019  -0.042   0.100   0.039
   25       -0.018  -0.040   0.111   0.053
   26       -0.019  -0.042   0.102   0.042
   27       -0.019  -0.041   0.103   0.044
   28       -0.019  -0.042   0.102   0.040
   29       -0.018  -0.041   0.094   0.035
   30       -0.018  -0.039   0.104   0.047
   31       -0.020  -0.043   0.104   0.042
   32       -0.016  -0.121   0.002  -0.134
   33       -0.016  -0.121   0.002  -0.134
   34       -0.013  -0.109   0.000  -0.122
   35       -0.013  -0.109   0.000  -0.122
   36       -0.014  -0.112   0.001  -0.125
   37       -0.014  -0.112   0.001  -0.125
   38       -0.016  -0.121   0.002  -0.134
   39       -0.016  -0.121   0.002  -0.134
   40       -0.016  -0.121   0.002  -0.135
   41       -0.015  -0.120   0.002  -0.133
   42       -0.015  -0.119   0.002  -0.133
   43       -0.016  -0.120   0.002  -0.134
   44       -0.015  -0.121   0.002  -0.134
   45       -0.016  -0.120   0.002  -0.134
   46       -0.013  -0.110   0.000  -0.123
   47       -0.016  -0.121   0.002  -0.135
   48        0.011  -0.002   2.367   2.376
tot         -0.234  -2.373  50.104  47.497