 vasp.6.1.1 19Jun20 (build Nov 30 2020 11:51:22) complex

 executed on             LinuxIFC date 2020.12.10  16:39:13

 INCAR:
 POTCAR:    PAW_PBE Mn 06Sep2000
 POTCAR:    PAW_PBE Ni 02Aug2007
 POTCAR:    PAW_PBE Ge 05Jan2001
 POTCAR:    PAW_PBE Fe 06Sep2000
 POTCAR:    PAW_PBE Mn 06Sep2000
   VRHFIN =Mn: d6 s1

   TITEL  = PAW_PBE Mn 06Sep2000
   POMASS =   54.938; ZVAL   =    7.000    mass and valenz
   ENMAX  =  269.864; ENMIN  =  202.398 eV

   TITEL  = PAW_PBE Ni 02Aug2007
   POMASS =   58.690; ZVAL   =   10.000    mass and valenz
   ENMAX  =  269.532; ENMIN  =  202.149 eV

   TITEL  = PAW_PBE Ge 05Jan2001
   POMASS =   72.610; ZVAL   =    4.000    mass and valenz
   ENMAX  =  173.807; ENMIN  =  130.355 eV

   TITEL  = PAW_PBE Fe 06Sep2000
   POMASS =   55.847; ZVAL   =    8.000    mass and valenz
   ENMAX  =  267.882; ENMIN  =  200.911 eV

  PAW_PBE Mn 06Sep2000                  :
  PAW_PBE Ni 02Aug2007                  :
  PAW_PBE Ge 05Jan2001                  :
  PAW_PBE Fe 06Sep2000                  :

 POSCAR: MnNiGe_orth
  positions in direct lattice
 exchange correlation table for  LEXCH =        8
   RHO(1)=    0.500       N(1)  =     2000
   RHO(2)=  100.500       N(2)  =     4000

 ion  position               nearest neighbor table
   1  0.242  0.250  0.178-  41 2.44  45 2.44  32 2.49  44 2.68  40 2.68  16 2.70  18 2.71  29 2.77
                            25 2.77  24 2.84  28 2.84  14 3.07  10 3.07   7 3.12   3 3.12
   2  0.242  0.750  0.178-  41 2.44  45 2.44  33 2.49  44 2.68  40 2.68  17 2.70  19 2.71  29 2.77
                            25 2.77  24 2.84  28 2.84  14 3.07  10 3.07   8 3.12   4 3.12
   3  0.492  0.250  0.322-  42 2.44  46 2.44  34 2.49  45 2.68  41 2.68  18 2.70  20 2.71  30 2.77
                            26 2.77  25 2.84  29 2.84  11 3.07  48 3.07   1 3.12   5 3.12
   4  0.492  0.750  0.322-  42 2.44  46 2.44  35 2.49  45 2.68  41 2.68  19 2.70  21 2.71  30 2.77
                            26 2.77  25 2.84  29 2.84  11 3.07  48 3.07   2 3.12   6 3.12
   5  0.742  0.250  0.178-  43 2.44  47 2.44  36 2.49  46 2.68  42 2.68  20 2.70  22 2.71  31 2.77
                            27 2.77  26 2.84  30 2.84  15 3.07  12 3.07   7 3.12   3 3.12
   6  0.742  0.750  0.178-  43 2.44  47 2.44  37 2.49  46 2.68  42 2.68  21 2.70  23 2.71  31 2.77
                            27 2.77  26 2.84  30 2.84  15 3.07  12 3.07   8 3.12   4 3.12
   7  0.992  0.250  0.322-  40 2.44  44 2.44  38 2.49  43 2.68  47 2.68  22 2.70  16 2.71  28 2.77
                            24 2.77  31 2.84  27 2.84  13 3.07   9 3.07   1 3.12   5 3.12
   8  0.992  0.750  0.322-  40 2.44  44 2.44  39 2.49  43 2.68  47 2.68  23 2.70  17 2.71  28 2.77
                            24 2.77  31 2.84  27 2.84  13 3.07   9 3.07   2 3.12   6 3.12
   9  0.008  0.000  0.678-  38 2.44  39 2.44  40 2.49  33 2.68  32 2.68  24 2.70  27 2.71  23 2.77
                            22 2.77  17 2.84  16 2.84   8 3.07   7 3.07  10 3.12  12 3.12
  10  0.258  0.000  0.822-  32 2.44  33 2.44  41 2.49  35 2.68  34 2.68  25 2.70  24 2.71  17 2.77
                            16 2.77  19 2.84  18 2.84   2 3.07   1 3.07  11 3.12   9 3.12
  11  0.508  0.000  0.678-  34 2.44  35 2.44  42 2.49  37 2.68  36 2.68  26 2.70  25 2.71  19 2.77
                            18 2.77  21 2.84  20 2.84   4 3.07   3 3.07  10 3.12  12 3.12
  12  0.758  0.000  0.822-  36 2.44  37 2.44  43 2.49  39 2.68  38 2.68  27 2.70  26 2.71  21 2.77
                            20 2.77  23 2.84  22 2.84   6 3.07   5 3.07  11 3.12   9 3.12
  13  0.008  0.500  0.678-  38 2.44  39 2.44  44 2.49  33 2.68  32 2.68  28 2.70  31 2.71  23 2.77
                            22 2.77  17 2.84  16 2.84   8 3.07   7 3.07  14 3.12  15 3.12
  14  0.258  0.500  0.822-  32 2.44  33 2.44  45 2.49  35 2.68  34 2.68  29 2.70  28 2.71  17 2.77
                            16 2.77  19 2.84  18 2.84   2 3.07   1 3.07  48 3.12  13 3.12
  15  0.758  0.500  0.822-  36 2.44  37 2.44  47 2.49  39 2.68  38 2.68  31 2.70  30 2.71  21 2.77
                            20 2.77  23 2.84  22 2.84   6 3.07   5 3.07  48 3.12  13 3.12
  16  0.177  0.250  0.553-  40 2.27  44 2.27  32 2.33  34 2.39  25 2.62  29 2.62   1 2.70   7 2.71
                            10 2.77  14 2.77  13 2.84   9 2.84
  17  0.177  0.750  0.553-  40 2.27  44 2.27  33 2.33  35 2.39  25 2.62  29 2.62   2 2.70   8 2.71
                            10 2.77  14 2.77  13 2.84   9 2.84
  18  0.427  0.250  0.947-  41 2.27  45 2.27  34 2.33  36 2.39  26 2.62  30 2.62   3 2.70   1 2.71
                            11 2.77  48 2.77  14 2.84  10 2.84
  19  0.427  0.750  0.947-  41 2.27  45 2.27  35 2.33  37 2.39  26 2.62  30 2.62   4 2.70   2 2.71
                            11 2.77  48 2.77  14 2.84  10 2.84
  20  0.677  0.250  0.553-  42 2.27  46 2.27  36 2.33  38 2.39  27 2.62  31 2.62   5 2.70   3 2.71
                            12 2.77  15 2.77  11 2.84  48 2.84
  21  0.677  0.750  0.553-  42 2.27  46 2.27  37 2.33  39 2.39  27 2.62  31 2.62   6 2.70   4 2.71
                            12 2.77  15 2.77  11 2.84  48 2.84
  22  0.927  0.250  0.947-  43 2.27  47 2.27  38 2.33  32 2.39  24 2.62  28 2.62   7 2.70   5 2.71
                             9 2.77  13 2.77  12 2.84  15 2.84
  23  0.927  0.750  0.947-  43 2.27  47 2.27  39 2.33  33 2.39  24 2.62  28 2.62   8 2.70   6 2.71
                             9 2.77  13 2.77  12 2.84  15 2.84
  24  0.073  0.000  0.053-  32 2.27  33 2.27  40 2.33  43 2.39  22 2.62  23 2.62   9 2.70  10 2.71
                             7 2.77   8 2.77   1 2.84   2 2.84
  25  0.323  0.000  0.447-  34 2.27  35 2.27  41 2.33  40 2.39  16 2.62  17 2.62  10 2.70  11 2.71
                             1 2.77   2 2.77   3 2.84   4 2.84
  26  0.573  0.000  0.053-  36 2.27  37 2.27  42 2.33  41 2.39  18 2.62  19 2.62  11 2.70  12 2.71
                             3 2.77   4 2.77   5 2.84   6 2.84
  27  0.823  0.000  0.447-  38 2.27  39 2.27  43 2.33  42 2.39  20 2.62  21 2.62  12 2.70   9 2.71
                             5 2.77   6 2.77   7 2.84   8 2.84
  28  0.073  0.500  0.053-  32 2.27  33 2.27  44 2.33  47 2.39  22 2.62  23 2.62  13 2.70  14 2.71
                             7 2.77   8 2.77   1 2.84   2 2.84
  29  0.323  0.500  0.447-  34 2.27  35 2.27  45 2.33  44 2.39  16 2.62  17 2.62  14 2.70  48 2.71
                             1 2.77   2 2.77   3 2.84   4 2.84
  30  0.573  0.500  0.053-  36 2.27  37 2.27  46 2.33  45 2.39  18 2.62  19 2.62  48 2.70  15 2.71
                             3 2.77   4 2.77   5 2.84   6 2.84
  31  0.823  0.500  0.447-  38 2.27  39 2.27  47 2.33  46 2.39  20 2.62  21 2.62  15 2.70  13 2.71
                             5 2.77   6 2.77   7 2.84   8 2.84
  32  0.125  0.250  0.878-  24 2.27  28 2.27  16 2.33  22 2.39  10 2.44  14 2.44   1 2.49  13 2.68
                             9 2.68
  33  0.125  0.750  0.878-  24 2.27  28 2.27  17 2.33  23 2.39  10 2.44  14 2.44   2 2.49  13 2.68
                             9 2.68
  34  0.375  0.250  0.622-  25 2.27  29 2.27  18 2.33  16 2.39  11 2.44  48 2.44   3 2.49  14 2.68
                            10 2.68
  35  0.375  0.750  0.622-  25 2.27  29 2.27  19 2.33  17 2.39  11 2.44  48 2.44   4 2.49  14 2.68
                            10 2.68
  36  0.625  0.250  0.878-  26 2.27  30 2.27  20 2.33  18 2.39  12 2.44  15 2.44   5 2.49  11 2.68
                            48 2.68
  37  0.625  0.750  0.878-  26 2.27  30 2.27  21 2.33  19 2.39  12 2.44  15 2.44   6 2.49  11 2.68
                            48 2.68
  38  0.875  0.250  0.622-  27 2.27  31 2.27  22 2.33  20 2.39   9 2.44  13 2.44   7 2.49  12 2.68
                            15 2.68
  39  0.875  0.750  0.622-  27 2.27  31 2.27  23 2.33  21 2.39   9 2.44  13 2.44   8 2.49  12 2.68
                            15 2.68
  40  0.125  0.000  0.378-  16 2.27  17 2.27  24 2.33  25 2.39   7 2.44   8 2.44   9 2.49   2 2.68
                             1 2.68
  41  0.375  0.000  0.122-  18 2.27  19 2.27  25 2.33  26 2.39   1 2.44   2 2.44  10 2.49   4 2.68
                             3 2.68
  42  0.625  0.000  0.378-  20 2.27  21 2.27  26 2.33  27 2.39   3 2.44   4 2.44  11 2.49   6 2.68
                             5 2.68
  43  0.875  0.000  0.122-  22 2.27  23 2.27  27 2.33  24 2.39   5 2.44   6 2.44  12 2.49   8 2.68
                             7 2.68
  44  0.125  0.500  0.378-  16 2.27  17 2.27  28 2.33  29 2.39   7 2.44   8 2.44  13 2.49   2 2.68
                             1 2.68
  45  0.375  0.500  0.122-  18 2.27  19 2.27  29 2.33  30 2.39   1 2.44   2 2.44  14 2.49   4 2.68
                             3 2.68
  46  0.625  0.500  0.378-  20 2.27  21 2.27  30 2.33  31 2.39   3 2.44   4 2.44  48 2.49   6 2.68
                             5 2.68
  47  0.875  0.500  0.122-  22 2.27  23 2.27  31 2.33  28 2.39   5 2.44   6 2.44  15 2.49   8 2.68
                             7 2.68
  48  0.508  0.500  0.678-  34 2.44  35 2.44  46 2.49  37 2.68  36 2.68  30 2.70  29 2.71  19 2.77
                            18 2.77  21 2.84  20 2.84   4 3.07   3 3.07  14 3.12  15 3.12

  LATTYP: Found a simple orthorhombic cell.
 ALAT       =     6.9141898155
 B/A-ratio  =     1.0555017973
 C/A-ratio  =     1.7085153923

  Lattice vectors:

 A1 = (   0.0000000000,   0.0000000000,  -6.9141898155)
 A2 = (   0.0000000000,  -7.2979397774,   0.0000000000)
 A3 = ( -11.8129997253,   0.0000000000,   0.0000000000)

Analysis of symmetry for initial positions (statically):
 Subroutine PRICEL returns:
 Original cell was already a primitive cell.

 Routine SETGRP: Setting up the symmetry group for a
 simple orthorhombic supercell.

 Subroutine GETGRP returns: Found  2 space group operations
 (whereof  2 operations were pure point group operations)
 out of a pool of  8 trial point group operations.

The static configuration has the point symmetry C_1h.

Analysis of symmetry for dynamics (positions and initial velocities):
 Subroutine PRICEL returns:
 Original cell was already a primitive cell.

 Routine SETGRP: Setting up the symmetry group for a
 simple orthorhombic supercell.

 Subroutine GETGRP returns: Found  2 space group operations
 (whereof  2 operations were pure point group operations)
 out of a pool of  8 trial point group operations.

The dynamic configuration has the point symmetry C_1h.

 Subroutine INISYM returns: Found  2 space group operations
 (whereof  2 operations are pure point group operations),
 and found     1 'primitive' translations

                                     Primitive cell

  volume of cell :     596.0762

  direct lattice vectors                    reciprocal lattice vectors
    11.812999725  0.000000000  0.000000000     0.084652503  0.000000000  0.000000000
     0.000000000  7.297939777  0.000000000     0.000000000  0.137024973  0.000000000
     0.000000000  0.000000000  6.914189816     0.000000000  0.000000000  0.144630105

  length of vectors
    11.812999725  7.297939777  6.914189816     0.084652503  0.137024973  0.144630105

  position of ions in fractional coordinates (direct lattice)
     0.241899997  0.250000000  0.178299993
     0.241899997  0.750000000  0.178299993
     0.491899997  0.250000000  0.321700007
     0.491899997  0.750000000  0.321700007
[...]

  energy without entropy =     -301.54616105  energy(sigma->0) =     -301.55065104

 average (electrostatic) potential at core
  the test charge radii are     1.0210  0.9791  1.1631  1.0103
  (the norm of the test charge is              1.0000)
       1 -42.0611       2 -42.0611       3 -42.0545       4 -42.0545       5 -42.0655
       6 -42.0655       7 -42.0641       8 -42.0641       9 -42.0644      10 -42.0639
      11 -42.0542      12 -42.0637      13 -42.0694      14 -42.0654      15 -42.0667
      16 -83.9841      17 -83.9841      18 -83.9589      19 -83.9589      20 -83.9639
      21 -83.9639      22 -83.9835      23 -83.9835      24 -83.9797      25 -83.9824
      26 -83.9957      27 -83.9717      28 -83.9884      29 -83.9760      30 -83.9427
      31 -83.9871      32 -28.6057      33 -28.6057      34 -28.6116      35 -28.6116
      36 -28.6078      37 -28.6078      38 -28.6055      39 -28.6055      40 -28.6036
      41 -28.5977      42 -28.6016      43 -28.6047      44 -28.6055      45 -28.5940
      46 -28.6141      47 -28.6054      48 -41.4286

 E-fermi :   7.5509     XC(G=0): -12.4073     alpha+bet :-14.8982

[...]

 k-point    60 :       0.5000    0.4286    0.4286
  band No.  band energies     occupation
      1      -3.3107      2.00000
      2      -3.3044      2.00000
      3      -2.9935      2.00000
      4      -2.9874      2.00000
      5      -2.9693      2.00000
      6      -2.9627      2.00000
      7      -2.6794      2.00000
      8      -2.6729      2.00000
      9      -1.8598      2.00000
     10      -1.8524      2.00000
     11      -1.7021      2.00000
     12      -1.6945      2.00000
     13      -1.6829      2.00000
     14      -1.6737      2.00000
     15      -1.5576      2.00000
     16      -1.5484      2.00000
     17       1.9458      2.00000
     18       1.9530      2.00000
     19       2.0549      2.00000
     20       2.0618      2.00000
     21       2.0719      2.00000
     22       2.0795      2.00000
     23       2.1735      2.00000
     24       2.1793      2.00000
     25       2.5123      2.00000
     26       2.5200      2.00000
     27       2.6451      2.00000
     28       2.6501      2.00000
     29       2.6696      2.00000
     30       2.6756      2.00000
     31       2.8874      2.00000
     32       2.8919      2.00000
     33       3.3572      2.00000
     34       3.3588      2.00000
     35       3.3993      2.00000
     36       3.4007      2.00000
     37       3.4225      2.00000
     38       3.4241      2.00000
     39       3.4865      2.00000
     40       3.4891      2.00000
     41       3.5681      2.00000
     42       3.5703      2.00000
     43       3.5728      2.00000
     44       3.5757      2.00000
     45       3.6462      2.00000
     46       3.6481      2.00000
     47       3.6970      2.00000
     48       3.6987      2.00000
     49       4.1204      2.00000
     50       4.1232      2.00000
     51       4.1541      2.00000
     52       4.1557      2.00000
     53       4.2002      2.00000
     54       4.2033      2.00000
     55       4.2472      2.00000
     56       4.2517      2.00000
     57       4.4138      2.00000
     58       4.4179      2.00000
     59       4.4707      2.00000
     60       4.4757      2.00000
[...]
    346      24.5968      0.00000
    347      24.9806      0.00000
    348      24.9894      0.00000
    349      25.0773      0.00000
    350      25.0858      0.00000
    351      25.1385      0.00000
    352      25.1480      0.00000
    353      25.3752      0.00000
    354      25.3852      0.00000
    355      25.4550      0.00000
    356      25.4596      0.00000
    357      25.7069      0.00000
    358      25.7131      0.00000
    359      25.8399      0.00000
    360      25.8418      0.00000

 soft charge-density along one line, spin component           1
         0         1         2         3         4         5         6         7         8         9
 total charge-density along one line

------------------------ aborting loop because EDIFF is reached ----------------------------------------

  FORCE on cell =-STRESS in cart. coord.  units (eV):
  Direction    XX          YY          ZZ          XY          YZ          ZX
  Alpha Z  1612.41941  1612.41941  1612.41941
  Ewald   -7710.75615 -7121.62276 -7585.58406    -0.00000     0.00000     0.12880
  Hartree  2054.72387  2334.87644  1958.41271    -0.00000    -0.00000    -0.32748
  E(xc)   -1640.92288 -1645.72241 -1641.30101     0.00000    -0.00000    -0.05109
  Local    -292.86157 -1134.03828  -294.23122     0.00000     0.00000    -0.37462
  n-local  -266.21778  -248.35582  -247.85940     0.17018    -0.10696    -0.39993
  augment  3315.30591  3314.67979  3295.48230     0.00000     0.00000     0.39867
  Kinetic  2905.42270  2906.95873  2906.72448    -0.62714     0.13280     0.59219
  Fock        0.00000     0.00000     0.00000     0.00000     0.00000     0.00000
  Total     -22.88649    19.19510     4.06322     0.00000     0.00000    -0.03345
  in kB     -61.56079    51.63158    10.92937     0.00000     0.00000    -0.08997

 VOLUME and BASIS-vectors are now :
  energy-cutoff  :      450.00
  volume of cell :      595.64
      direct lattice vectors                 reciprocal lattice vectors
    11.810133461  0.000000000  0.000000000     0.084673048  0.000000000  0.000000000
     0.000000000  7.296169031  0.000000000     0.000000000  0.137058228  0.000000000
     0.000000000  0.000000000  6.912512181     0.000000000  0.000000000  0.144665206

  length of vectors
    11.810133461  7.296169031  6.912512181     0.084673048  0.137058228  0.144665206

 FORCES acting on ions
    electron-ion (+dipol)            ewald-force                    non-local-force                 convergence-correction
   0.106E+02 0.105E+01 0.370E+02   -.109E+02 -.105E+01 -.369E+02   -.239E+00 0.836E-02 0.108E+00   0.626E-02 -.497E-02 -.193E-01
   0.106E+02 -.105E+01 0.370E+02   -.109E+02 0.105E+01 -.369E+02   -.239E+00 -.836E-02 0.108E+00   0.626E-02 0.497E-02 -.193E-01
   0.697E+01 0.511E+01 -.318E+02   -.726E+01 -.516E+01 0.317E+02   -.205E+00 0.169E-01 -.476E-01   0.740E-02 0.440E-02 -.237E-01
   0.697E+01 -.511E+01 -.318E+02   -.726E+01 0.516E+01 0.317E+02   -.205E+00 -.169E-01 -.476E-01   0.740E-02 -.440E-02 -.237E-01
   0.134E+01 0.134E+01 0.370E+02   -.162E+01 -.133E+01 -.369E+02   -.217E+00 -.114E-01 0.109E+00   -.980E-02 -.122E-01 0.934E-02
   0.134E+01 -.134E+01 0.370E+02   -.162E+01 0.133E+01 -.369E+02   -.217E+00 0.114E-01 0.109E+00   -.980E-02 0.122E-01 0.934E-02
   0.574E+01 0.307E+00 -.368E+02   -.601E+01 -.288E+00 0.367E+02   -.211E+00 0.670E-03 -.983E-01   -.256E-02 -.181E-01 0.304E-01
   0.574E+01 -.307E+00 -.368E+02   -.601E+01 0.288E+00 0.367E+02   -.211E+00 -.670E-03 -.983E-01   -.256E-02 0.181E-01 0.304E-01
   -.613E+01 -.220E-12 0.370E+02   0.639E+01 -.428E-13 -.369E+02   0.208E+00 0.000E+00 0.893E-01   0.130E-01 0.244E-13 -.297E-01
   -.125E+01 0.932E-13 -.377E+02   0.156E+01 0.144E-13 0.376E+02   0.189E+00 0.000E+00 -.101E+00   -.536E-02 0.230E-13 -.398E-02
   -.614E+01 0.249E-13 0.369E+02   0.639E+01 -.107E-13 -.369E+02   0.210E+00 0.000E+00 0.109E+00   -.124E-01 0.286E-13 0.219E-01
   -.110E+02 0.629E-13 -.377E+02   0.112E+02 -.274E-13 0.376E+02   0.210E+00 0.000E+00 -.823E-01   0.335E-02 0.226E-13 0.347E-03
   -.614E+01 -.261E-12 0.370E+02   0.639E+01 -.424E-13 -.369E+02   0.208E+00 0.000E+00 0.128E+00   0.255E-01 0.201E-13 -.317E-01
   0.402E+01 0.848E-12 -.393E+02   -.387E+01 0.134E-13 0.393E+02   0.239E+00 0.000E+00 -.119E+00   0.148E-01 0.209E-13 -.819E-03
   -.163E+02 0.129E-11 -.393E+02   0.167E+02 -.207E-13 0.393E+02   0.184E+00 0.000E+00 -.155E+00   -.200E-01 0.169E-13 0.755E-02
   0.814E+02 0.156E+01 -.409E+02   -.812E+02 -.153E+01 0.418E+02   -.105E+00 0.237E-02 -.466E+00   -.228E-01 -.257E-01 0.364E-01
   0.814E+02 -.156E+01 -.409E+02   -.812E+02 0.153E+01 0.418E+02   -.105E+00 -.237E-02 -.466E+00   -.228E-01 0.257E-01 0.364E-01
   0.823E+02 0.989E+01 0.322E+02   -.821E+02 -.995E+01 -.332E+02   -.964E-01 -.197E-02 0.437E+00   -.117E-01 0.908E-02 -.153E-02
   0.823E+02 -.989E+01 0.322E+02   -.821E+02 0.995E+01 -.332E+02   -.964E-01 0.197E-02 0.437E+00   -.117E-01 -.908E-02 -.153E-02
   0.609E+02 0.887E+01 -.373E+02   -.607E+02 -.891E+01 0.383E+02   -.129E+00 0.628E-01 -.436E+00   0.616E-02 -.179E-01 -.211E-01
   0.609E+02 -.887E+01 -.373E+02   -.607E+02 0.891E+01 0.383E+02   -.129E+00 -.628E-01 -.436E+00   0.616E-02 0.179E-01 -.211E-01
   0.719E+02 0.620E+00 0.411E+02   -.717E+02 -.591E+00 -.421E+02   -.121E+00 0.149E-01 0.454E+00   0.753E-02 -.445E-01 -.129E-02
   0.719E+02 -.620E+00 0.411E+02   -.717E+02 0.591E+00 -.421E+02   -.121E+00 -.149E-01 0.454E+00   0.753E-02 0.445E-01 -.129E-02
   -.728E+02 -.212E-12 -.418E+02   0.726E+02 0.426E-13 0.428E+02   0.114E+00 0.000E+00 -.468E+00   0.168E-01 0.610E-13 -.146E-01
   -.681E+02 0.473E-12 0.435E+02   0.679E+02 0.334E-13 -.446E+02   0.133E+00 0.000E+00 0.455E+00   -.254E-01 0.255E-13 0.253E-01
   -.776E+02 0.126E-12 -.438E+02   0.774E+02 0.528E-13 0.448E+02   0.113E+00 0.000E+00 -.458E+00   -.853E-02 0.620E-13 0.489E-02
   -.801E+02 0.386E-12 0.424E+02   0.799E+02 0.181E-13 -.434E+02   0.130E+00 0.000E+00 0.457E+00   0.445E-01 0.133E-13 0.997E-03
   -.723E+02 -.436E-12 -.420E+02   0.721E+02 0.427E-13 0.430E+02   0.110E+00 0.000E+00 -.491E+00   0.321E-01 0.433E-13 0.123E-01
   -.577E+02 -.270E-11 0.505E+02   0.575E+02 0.186E-13 -.515E+02   0.121E+00 0.000E+00 0.519E+00   -.493E-02 0.114E-13 0.282E-01
   -.815E+02 0.130E-11 -.538E+02   0.814E+02 0.381E-13 0.548E+02   0.176E+00 0.000E+00 -.450E+00   -.360E-01 0.458E-13 0.774E-02
   -.830E+02 -.598E-11 0.434E+02   0.828E+02 0.532E-14 -.444E+02   0.143E+00 0.000E+00 0.454E+00   0.227E-01 0.459E-14 -.360E-01
   -.323E+02 0.352E+00 0.152E+02   0.332E+02 -.340E+00 -.148E+02   -.777E+00 0.663E-02 -.798E+00   0.213E-01 -.126E-01 -.199E-01
   -.323E+02 -.352E+00 0.152E+02   0.332E+02 0.340E+00 -.148E+02   -.777E+00 -.663E-02 -.798E+00   0.213E-01 0.126E-01 -.199E-01
   -.273E+02 0.598E+01 -.141E+02   0.282E+02 -.607E+01 0.137E+02   -.607E+00 0.199E+00 0.849E+00   -.108E-01 0.271E-02 0.206E-01
   -.273E+02 -.598E+01 -.141E+02   0.282E+02 0.607E+01 0.137E+02   -.607E+00 -.199E+00 0.849E+00   -.108E-01 -.271E-02 0.206E-01
   -.386E+02 0.442E+01 0.121E+02   0.396E+02 -.444E+01 -.117E+02   -.840E+00 0.753E-01 -.859E+00   -.151E-01 -.526E-02 0.162E-01
   -.386E+02 -.442E+01 0.121E+02   0.396E+02 0.444E+01 -.117E+02   -.840E+00 -.753E-01 -.859E+00   -.151E-01 0.526E-02 0.162E-01
   -.362E+02 0.470E+00 -.153E+02   0.371E+02 -.450E+00 0.149E+02   -.778E+00 0.492E-04 0.796E+00   0.148E-01 -.248E-01 -.190E-01
   -.362E+02 -.470E+00 -.153E+02   0.371E+02 0.450E+00 0.149E+02   -.778E+00 -.492E-04 0.796E+00   0.148E-01 0.248E-01 -.190E-01
   0.354E+02 0.204E-12 0.155E+02   -.363E+02 0.207E-13 -.152E+02   0.772E+00 0.000E+00 -.796E+00   -.179E-01 -.424E-14 0.215E-01
   0.359E+02 0.760E-13 -.157E+02   -.368E+02 0.253E-13 0.154E+02   0.783E+00 0.000E+00 0.781E+00   0.522E-02 -.147E-14 -.207E-01
   0.320E+02 -.528E-13 0.165E+02   -.329E+02 -.143E-13 -.161E+02   0.785E+00 0.000E+00 -.800E+00   0.555E-02 -.612E-14 -.149E-01
   0.325E+02 0.160E-12 -.155E+02   -.335E+02 -.218E-13 0.151E+02   0.774E+00 0.000E+00 0.793E+00   -.590E-02 -.162E-14 0.165E-01
   0.359E+02 0.169E-12 0.157E+02   -.368E+02 0.231E-13 -.153E+02   0.783E+00 0.000E+00 -.799E+00   -.881E-02 -.450E-14 0.105E-01
   0.374E+02 -.850E-12 -.167E+02   -.383E+02 0.278E-13 0.164E+02   0.753E+00 0.000E+00 0.821E+00   0.108E-01 -.106E-14 -.222E-01
   0.284E+02 0.143E-11 0.213E+02   -.292E+02 -.108E-13 -.210E+02   0.656E+00 0.000E+00 -.608E+00   -.578E-02 -.104E-13 -.156E-01
   0.321E+02 0.929E-12 -.156E+02   -.331E+02 -.202E-13 0.152E+02   0.777E+00 0.000E+00 0.797E+00   -.329E-02 -.391E-14 0.254E-01
   -.697E+01 -.288E-11 0.423E+02   0.730E+01 0.230E-13 -.422E+02   0.392E-01 0.000E+00 -.191E+00   -.238E-01 0.276E-13 0.257E-01
   0.417E-01 0.256E-10 -.104E-01   -.178E-12 0.163E-12 0.426E-13   -.396E-01 0.000E+00 -.219E-01   -.275E-02 0.885E-12 0.328E-01

 POSITION                                       TOTAL-FORCE (eV/Angst)
      2.85687      1.82404      1.23250        -0.495990      0.005477      0.152573
      2.85687      5.47213      1.23250        -0.495990     -0.005477      0.152573
      5.80940      1.82404      2.22376        -0.487298     -0.031186     -0.167117
      5.80940      5.47213      2.22376        -0.487298      0.031186     -0.167117
      8.76194      1.82404      1.23250        -0.498904     -0.008291      0.160479
      8.76194      5.47213      1.23250        -0.498904      0.008291      0.160479
     11.71447      1.82404      2.22376        -0.486149      0.001366     -0.154977
     11.71447      5.47213      2.22376        -0.486149     -0.001366     -0.154977
      0.09566      0.00000      4.68876         0.480472      0.000000      0.141266
      3.04820      0.00000      5.68001         0.494191      0.000000     -0.160667
      6.00073      0.00000      4.68876         0.453608      0.000000      0.155564
      8.95326      0.00000      5.68001         0.483378      0.000000     -0.146095
      0.09566      3.64808      4.68876         0.481082      0.000000      0.163863
      3.04820      3.64808      5.68001         0.398875      0.000000     -0.154918
      8.95326      3.64808      5.68001         0.535299      0.000000     -0.156876
      2.08685      1.82404      3.82469         0.096924      0.005200      0.550297
      2.08685      5.47213      3.82469         0.096924     -0.005200      0.550297
      5.03938      1.82404      6.54408         0.088091     -0.051796     -0.554574
      5.03938      5.47213      6.54408         0.088091      0.051796     -0.554574
      7.99192      1.82404      3.82469         0.107579      0.001801      0.549891
      7.99192      5.47213      3.82469         0.107579     -0.001801      0.549891
     10.94445      1.82404      6.54408         0.087970     -0.000701     -0.549745
     10.94445      5.47213      6.54408         0.087970      0.000701     -0.549745
      0.86568      0.00000      0.36844        -0.086322      0.000000      0.550851
      3.81822      0.00000      3.08782        -0.083459      0.000000     -0.564176
      6.77075      0.00000      0.36844        -0.109576      0.000000      0.553117
      9.72328      0.00000      3.08782        -0.066708      0.000000     -0.553309
      0.86568      3.64808      0.36844        -0.077952      0.000000      0.533620
      3.81822      3.64808      3.08782        -0.110269      0.000000     -0.498165
      6.77075      3.64808      0.36844        -0.007252      0.000000      0.581353
      9.72328      3.64808      3.08782        -0.101298      0.000000     -0.524566
      1.47922      1.82404      6.07126         0.156839      0.006515     -0.431863
      1.47922      5.47213      6.07126         0.156839     -0.006515     -0.431863
      4.43175      1.82404      4.29751         0.298702      0.116944      0.483935
      4.43175      5.47213      4.29751         0.298702     -0.116944      0.483935
      7.38429      1.82404      6.07126         0.114197      0.050655     -0.461605
      7.38429      5.47213      6.07126         0.114197     -0.050655     -0.461605
     10.33682      1.82404      4.29751         0.152118     -0.004730      0.434011
     10.33682      5.47213      4.29751         0.152118      0.004730      0.434011
      1.47331      0.00000      2.61500        -0.151336      0.000000     -0.439817
      4.42585      0.00000      0.84125        -0.145123      0.000000      0.417016
      7.37838      0.00000      2.61500        -0.168706      0.000000     -0.417299
     10.33091      0.00000      0.84125        -0.158444      0.000000      0.440941
      1.47331      3.64808      2.61500        -0.147877      0.000000     -0.430902
      4.42585      3.64808      0.84125        -0.140237      0.000000      0.450345
      7.37838      3.64808      2.61500        -0.228070      0.000000     -0.375866
     10.33091      3.64808      0.84125        -0.159953      0.000000      0.427059
      6.00073      3.64808      4.68876         0.347518      0.000000     -0.014948
    total drift:                               -0.000568      0.000000      0.000512

  FREE ENERGIE OF THE ION-ELECTRON SYSTEM (eV)
  free  energy   TOTEN  =      -301.55289604 eV

  energy  without entropy=     -301.54616105  energy(sigma->0) =     -301.55065104

 d Force = 0.0000000E+00[ 0.000E+00, 0.000E+00]  d Energy = 0.5607715E-03-0.561E-03
 d Force = 0.0000000E+00[ 0.000E+00, 0.000E+00]  d Ewald  =-0.1076269E+02 0.108E+02

 reached required accuracy - stopping structural energy minimisation
 writing wavefunctions