 vasp.6.1.1 19Jun20 (build Nov 30 2020 11:51:22) complex

 executed on             LinuxIFC date 2021.03.24  09:13:59

 INCAR:
 POTCAR:    PAW_PBE Ni 02Aug2007
 POTCAR:    PAW_PBE Ge 05Jan2001
 POTCAR:    PAW_PBE Mn 06Sep2000
 POTCAR:    PAW_PBE Fe 06Sep2000
 POTCAR:    PAW_PBE Ni 02Aug2007
   VRHFIN =Ni:

   TITEL  = PAW_PBE Ni 02Aug2007
   POMASS =   58.690; ZVAL   =   10.000    mass and valenz
   ENMAX  =  269.532; ENMIN  =  202.149 eV

   TITEL  = PAW_PBE Ge 05Jan2001
   POMASS =   72.610; ZVAL   =    4.000    mass and valenz
   ENMAX  =  173.807; ENMIN  =  130.355 eV

   TITEL  = PAW_PBE Mn 06Sep2000
   POMASS =   54.938; ZVAL   =    7.000    mass and valenz
   ENMAX  =  269.864; ENMIN  =  202.398 eV

   TITEL  = PAW_PBE Fe 06Sep2000
   POMASS =   55.847; ZVAL   =    8.000    mass and valenz
   ENMAX  =  267.882; ENMIN  =  200.911 eV

  PAW_PBE Ni 02Aug2007                  :
  PAW_PBE Ge 05Jan2001                  :
  PAW_PBE Mn 06Sep2000                  :
  PAW_PBE Fe 06Sep2000                  :

 POSCAR: MnFeNiGe_hex
  positions in direct lattice
  velocities in cartesian coordinates
 exchange correlation table for  LEXCH =        8
   RHO(1)=    0.500       N(1)  =     2000
   RHO(2)=  100.500       N(2)  =     4000

 ion  position               nearest neighbor table
   1  0.667  0.833  0.375-  27 2.35  29 2.35  23 2.35  17 2.50  26 2.50  36 2.66  45 2.66  38 2.66
                            46 2.66  43 2.66  48 2.66
   2  0.333  0.167  0.625-  28 2.35  30 2.35  24 2.35  25 2.50  18 2.50  39 2.66  44 2.66  46 2.66
                            48 2.66  37 2.66  45 2.66
   3  0.167  0.833  0.375-  25 2.35  23 2.35  29 2.35  28 2.50  19 2.50  40 2.66  47 2.66  43 2.66
                            48 2.66  38 2.66  46 2.66
   4  0.833  0.167  0.625-  26 2.35  24 2.35  30 2.35  27 2.50  20 2.50  39 2.66  44 2.66  46 2.66
                            48 2.66  47 2.66  41 2.66
   5  0.167  0.333  0.375-  29 2.35  27 2.35  25 2.35  24 2.50  21 2.50  43 2.66  48 2.66  47 2.66
                            40 2.66  36 2.66  45 2.66
   6  0.833  0.667  0.625-  30 2.35  28 2.35  26 2.35  23 2.50  22 2.50  37 2.66  41 2.66  45 2.66
                            47 2.66  44 2.66  48 2.66
   7  0.833  0.667  0.125-  31 2.35  19 2.35  17 2.35  23 2.50  22 2.50  33 2.66  35 2.66  36 2.66
                            40 2.66  42 2.66  43 2.66
   8  0.167  0.333  0.875-  18 2.35  32 2.35  20 2.35  24 2.50  21 2.50  42 2.66  44 2.66  35 2.66
                            41 2.66  37 2.66  33 2.66
   9  0.333  0.167  0.125-  19 2.35  31 2.35  21 2.35  25 2.50  18 2.50  34 2.66  38 2.66  42 2.66
                            43 2.66  36 2.66  33 2.66
  10  0.667  0.833  0.875-  20 2.35  32 2.35  22 2.35  26 2.50  17 2.50  33 2.66  37 2.66  34 2.66
                            39 2.66  42 2.66  44 2.66
  11  0.833  0.167  0.125-  17 2.35  21 2.35  31 2.35  27 2.50  20 2.50  34 2.66  38 2.66  42 2.66
                            43 2.66  35 2.66  40 2.66
  12  0.167  0.833  0.875-  18 2.35  22 2.35  32 2.35  28 2.50  19 2.50  35 2.66  41 2.66  42 2.66
                            44 2.66  39 2.66  34 2.66
  13  0.333  0.667  0.125-  21 2.35  17 2.35  19 2.35  29 2.50  32 2.50  33 2.66  35 2.66  36 2.66
                            40 2.66  38 2.66  34 2.66
  14  0.667  0.333  0.875-  22 2.35  20 2.35  18 2.35  30 2.50  31 2.50  34 2.66  39 2.66  37 2.66
                            33 2.66  35 2.66  41 2.66
  15  0.667  0.333  0.375-  23 2.35  25 2.35  27 2.35  30 2.50  31 2.50  38 2.66  46 2.66  45 2.66
                            36 2.66  40 2.66  47 2.66
  16  0.333  0.667  0.625-  24 2.35  26 2.35  28 2.35  29 2.50  32 2.50  37 2.66  41 2.66  45 2.66
                            47 2.66  46 2.66  39 2.66
  17  0.667  0.833  0.125-  11 2.35  13 2.35   7 2.35   1 2.50  10 2.50  33 2.66  36 2.66  34 2.66
                            38 2.66  42 2.66  43 2.66
  18  0.333  0.167  0.875-   8 2.35  12 2.35  14 2.35   2 2.50   9 2.50  42 2.66  44 2.66  33 2.66
                            37 2.66  34 2.66  39 2.66
  19  0.167  0.833  0.125-   9 2.35   7 2.35  13 2.35  12 2.50   3 2.50  35 2.66  40 2.66  42 2.66
                            43 2.66  38 2.66  34 2.66
  20  0.833  0.167  0.875-  10 2.35   8 2.35  14 2.35  11 2.50   4 2.50  34 2.66  39 2.66  42 2.66
                            44 2.66  35 2.66  41 2.66
  21  0.167  0.333  0.125-  13 2.35  11 2.35   9 2.35   8 2.50   5 2.50  42 2.66  43 2.66  35 2.66
                            40 2.66  36 2.66  33 2.66
  22  0.833  0.667  0.875-  14 2.35  12 2.35  10 2.35   7 2.50   6 2.50  33 2.66  35 2.66  37 2.66
                            41 2.66  42 2.66  44 2.66
  23  0.833  0.667  0.375-  15 2.35   3 2.35   1 2.35   7 2.50   6 2.50  36 2.66  40 2.66  45 2.66
                            47 2.66  43 2.66  48 2.66
  24  0.167  0.333  0.625-  16 2.35   4 2.35   2 2.35   8 2.50   5 2.50  44 2.66  48 2.66  47 2.66
                            41 2.66  37 2.66  45 2.66
  25  0.333  0.167  0.375-   3 2.35  15 2.35   5 2.35   9 2.50   2 2.50  38 2.66  43 2.66  46 2.66
                            48 2.66  36 2.66  45 2.66
  26  0.667  0.833  0.625-   4 2.35  16 2.35   6 2.35  10 2.50   1 2.50  37 2.66  45 2.66  39 2.66
                            46 2.66  44 2.66  48 2.66
  27  0.833  0.167  0.375-   1 2.35   5 2.35  15 2.35  11 2.50   4 2.50  38 2.66  43 2.66  46 2.66
                            48 2.66  47 2.66  40 2.66
  28  0.167  0.833  0.625-   2 2.35   6 2.35  16 2.35  12 2.50   3 2.50  41 2.66  47 2.66  44 2.66
                            48 2.66  39 2.66  46 2.66
  29  0.333  0.667  0.375-   5 2.35   1 2.35   3 2.35  13 2.50  16 2.50  36 2.66  40 2.66  45 2.66
                            47 2.66  46 2.66  38 2.66
  30  0.667  0.333  0.625-   6 2.35   2 2.35   4 2.35  14 2.50  15 2.50  39 2.66  46 2.66  45 2.66
                            37 2.66  41 2.66  47 2.66
  31  0.667  0.333  0.125-   7 2.35   9 2.35  11 2.35  14 2.50  15 2.50  34 2.66  38 2.66  36 2.66
                            33 2.66  35 2.66  40 2.66
  32  0.333  0.667  0.875-   8 2.35  10 2.35  12 2.35  13 2.50  16 2.50  33 2.66  35 2.66  37 2.66
                            41 2.66  39 2.66  34 2.66
  33  0.500  0.500  0.000-  36 2.50  37 2.50  10 2.66  17 2.66   7 2.66  22 2.66  31 2.66  32 2.66
                            13 2.66  14 2.66   9 2.66  18 2.66  21 2.66   8 2.66
  34  0.500  0.000  0.000-  38 2.50  39 2.50  14 2.66  31 2.66  17 2.66  20 2.66  10 2.66  11 2.66
                             9 2.66  13 2.66  32 2.66  19 2.66  12 2.66  18 2.66
  35  0.000  0.500  0.000-  40 2.50  41 2.50  12 2.66  19 2.66   8 2.66  21 2.66  22 2.66  32 2.66
                             7 2.66  13 2.66  20 2.66  11 2.66  31 2.66  14 2.66
  36  0.500  0.500  0.250-  33 2.50  45 2.50   1 2.66  17 2.66   7 2.66  23 2.66  29 2.66  31 2.66
                            13 2.66  15 2.66   9 2.66  25 2.66   5 2.66  21 2.66
  37  0.500  0.500  0.750-  33 2.50  45 2.50  10 2.66  26 2.66  22 2.66   6 2.66  30 2.66  32 2.66
                            14 2.66  16 2.66   2 2.66  18 2.66  24 2.66   8 2.66
  38  0.500  0.000  0.250-  34 2.50  46 2.50  15 2.66  31 2.66  17 2.66  25 2.66  27 2.66   9 2.66
                            11 2.66   1 2.66  29 2.66  13 2.66   3 2.66  19 2.66
  39  0.500  0.000  0.750-  34 2.50  46 2.50  14 2.66  30 2.66  20 2.66  26 2.66   4 2.66  10 2.66
                             2 2.66  16 2.66  32 2.66  12 2.66  28 2.66  18 2.66
  40  0.000  0.500  0.250-  35 2.50  47 2.50   3 2.66  19 2.66   5 2.66  21 2.66  23 2.66  29 2.66
                             7 2.66  13 2.66  27 2.66  11 2.66  15 2.66  31 2.66
  41  0.000  0.500  0.750-  35 2.50  47 2.50  12 2.66  28 2.66  22 2.66  24 2.66   8 2.66  32 2.66
                             6 2.66  16 2.66   4 2.66  20 2.66  30 2.66  14 2.66
  42  0.000  0.000  0.000-  43 2.50  44 2.50  18 2.66   8 2.66  21 2.66  19 2.66  20 2.66  11 2.66
                            12 2.66   9 2.66   7 2.66  22 2.66  17 2.66  10 2.66
  43  0.000  0.000  0.250-  42 2.50  48 2.50   5 2.66  21 2.66  19 2.66   3 2.66  25 2.66  27 2.66
                             9 2.66  11 2.66   7 2.66  23 2.66  17 2.66   1 2.66
  44  0.000  0.000  0.750-  42 2.50  48 2.50  18 2.66   8 2.66  24 2.66  20 2.66   2 2.66  28 2.66
                            12 2.66   4 2.66   6 2.66  22 2.66  26 2.66  10 2.66
  45  0.500  0.500  0.500-  36 2.50  37 2.50   1 2.66  26 2.66  23 2.66   6 2.66  29 2.66  30 2.66
                            15 2.66  16 2.66  25 2.66   2 2.66   5 2.66  24 2.66
  46  0.500  0.000  0.500-  38 2.50  39 2.50  15 2.66  30 2.66  25 2.66  26 2.66  27 2.66   2 2.66
                             4 2.66   1 2.66  29 2.66  16 2.66   3 2.66  28 2.66
  47  0.000  0.500  0.500-  40 2.50  41 2.50   3 2.66  28 2.66  23 2.66  24 2.66   5 2.66  29 2.66
                             6 2.66  16 2.66   4 2.66  27 2.66  15 2.66  30 2.66
  48  0.000  0.000  0.500-  43 2.50  44 2.50   5 2.66  24 2.66   3 2.66  25 2.66  27 2.66  28 2.66
                             4 2.66   2 2.66   6 2.66  23 2.66   1 2.66  26 2.66

  LATTYP: Found a hexagonal cell.
 ALAT       =     8.1302281060
 C/A-ratio  =     1.2280813329

  Lattice vectors:

 A1 = (   8.1302281060,   0.0000000000,   0.0000000000)
 A2 = (  -4.0651140530,   7.0409840784,   0.0000000000)
 A3 = (   0.0000000000,   0.0000000000,   9.9845813688)

Analysis of symmetry for initial positions (statically):
 Subroutine PRICEL returns:
 Original cell was already a primitive cell.

 Routine SETGRP: Setting up the symmetry group for a
 hexagonal supercell.

 Subroutine GETGRP returns: Found 12 space group operations
 (whereof 12 operations were pure point group operations)
 out of a pool of 24 trial point group operations.

The static configuration has the point symmetry D_3d.

Analysis of symmetry for dynamics (positions and initial velocities):
 Subroutine PRICEL returns:
 Original cell was already a primitive cell.

 Routine SETGRP: Setting up the symmetry group for a
 hexagonal supercell.

 Subroutine GETGRP returns: Found 12 space group operations
 (whereof 12 operations were pure point group operations)
 out of a pool of 24 trial point group operations.

The dynamic configuration has the point symmetry D_3d.

 Subroutine INISYM returns: Found 12 space group operations
 (whereof 12 operations are pure point group operations),
 and found     1 'primitive' translations

                                     Primitive cell

  volume of cell :     571.5654

  direct lattice vectors                    reciprocal lattice vectors
     8.130228106  0.000000000  0.000000000     0.122997779  0.071012801  0.000000000
    -4.065114053  7.040984078  0.000000000     0.000000000  0.142025602  0.000000000
     0.000000000  0.000000000  9.984581369     0.000000000  0.000000000  0.100154424

  length of vectors
     8.130228106  8.130228106  9.984581369     0.142025602  0.142025602  0.100154424

  position of ions in fractional coordinates (direct lattice)
     0.666666666  0.833333333  0.375000000
     0.333333333  0.166666666  0.625000000
     0.166666666  0.833333333  0.375000000
     0.833333333  0.166666666  0.625000000
     0.166666666  0.333333333  0.375000000
[...]
     35       4.0751      2.00000
     36       4.3957      2.00000
     37       4.3957      2.00000
     38       4.3966      2.00000
     39       4.4072      2.00000
     40       4.4091      2.00000
     41       4.5522      2.00000
     42       4.5557      2.00000
     43       4.5595      2.00000
     44       4.5596      2.00000
     45       4.5617      2.00000
     46       4.5617      2.00000
     47       4.6318      2.00000
     48       4.6366      2.00000
     49       4.6366      2.00000
     50       4.6823      2.00000
     51       4.6823      2.00000
     52       4.6824      2.00000
     53       4.6868      2.00000
     54       4.6894      2.00000
     55       4.6894      2.00000
     56       4.7041      2.00000
     57       4.7126      2.00000
     58       4.7126      2.00000
     59       4.7407      2.00000
     60       4.7407      2.00000
[...]
    346      25.1423      0.00000
    347      25.2292      0.00000
    348      25.2292      0.00000
    349      25.2657      0.00000
    350      25.6513      0.00000
    351      25.7477      0.00000
    352      25.7477      0.00000
    353      25.7663      0.00000
    354      26.4655      0.00000
    355      26.4655      0.00000
    356      26.4777      0.00000
    357      26.5914      0.00000
    358      26.6165      0.00000
    359      26.6182      0.00000
    360      26.7958      0.00000

[...]

 k-point    69 :       0.3333    0.3333    0.4286
  band No.  band energies     occupation
      1      -3.1057      2.00000
      2      -3.1046      2.00000
      3      -3.1046      2.00000
      4      -2.9137      2.00000
      5      -2.9125      2.00000
      6      -2.9125      2.00000
      7      -1.3957      2.00000
      8      -1.3957      2.00000
      9      -1.3009      2.00000
     10      -1.3009      2.00000
     11      -1.0880      2.00000
     12      -1.0847      2.00000
     13      -1.0847      2.00000
     14      -0.8276      2.00000
     15      -0.8236      2.00000
     16      -0.8236      2.00000
     17       2.2235      2.00000
     18       2.2992      2.00000
     19       2.3048      2.00000
     20       2.3048      2.00000
     21       2.3782      2.00000
     22       2.3842      2.00000
     23       2.3842      2.00000
     24       2.4202      2.00000
     25       2.4652      2.00000
     26       2.4652      2.00000
     27       2.7674      2.00000
     28       2.7674      2.00000
     29       3.1912      2.00000
     30       3.2027      2.00000
     31       3.2027      2.00000
     32       3.2652      2.00000
     33       3.2758      2.00000
     34       3.2758      2.00000
     35       3.9636      2.00000
     36       3.9663      2.00000
     37       3.9663      2.00000
     38       3.9757      2.00000
     39       3.9830      2.00000
     40       3.9830      2.00000
     41       4.2072      2.00000
     42       4.2512      2.00000
     43       4.2524      2.00000
     44       4.2524      2.00000
     45       4.4048      2.00000
     46       4.4064      2.00000
     47       4.4064      2.00000
     48       4.4790      2.00000
     49       4.6504      2.00000
     50       4.6527      2.00000
     51       4.6527      2.00000
     52       4.7009      2.00000
     53       4.7029      2.00000
     54       4.7029      2.00000
     55       4.7215      2.00000
     56       4.7215      2.00000
     57       4.7527      2.00000
     58       4.7549      2.00000
     59       4.7549      2.00000
     60       4.7626      2.00000
[...]
    346      25.6134      0.00000
    347      25.7740      0.00000
    348      25.7782      0.00000
    349      25.7782      0.00000
    350      26.0540      0.00000
    351      26.0540      0.00000
    352      26.0613      0.00000
    353      26.2386      0.00000
    354      26.2386      0.00000
    355      26.2468      0.00000
    356      26.3094      0.00000
    357      26.4048      0.00000
    358      26.4078      0.00000
    359      26.4078      0.00000
    360      26.8223      0.00000

 soft charge-density along one line, spin component           1
         0         1         2         3         4         5         6         7         8         9
 total charge-density along one line

------------------------ aborting loop because EDIFF is reached ----------------------------------------

  FORCE on cell =-STRESS in cart. coord.  units (eV):
  Direction    XX          YY          ZZ          XY          YZ          ZX
  Alpha Z  1680.34194  1680.34194  1680.34194
  Ewald   -7552.71999 -7552.71999 -7876.01137    -0.00001     0.00000     0.00000
  Hartree  2050.67131  2050.67131  1943.48939    -0.00000     0.00000    -0.00000
  E(xc)   -1646.61947 -1646.61947 -1642.64752    -0.00000    -0.00000     0.00000
  Local    -498.33838  -498.33971   -77.10795    -0.00115    -0.00000     0.00000
  n-local  -261.00264  -258.28585  -230.88639    -1.28157    -0.17873    -1.07940
  augment  3309.16979  3309.17072  3300.47780     0.00081    -0.00000     0.00000
  Kinetic  2916.47311  2917.58841  2902.27868    -2.61842     0.14739     0.29252
  Fock        0.00000     0.00000     0.00000     0.00000     0.00000     0.00000
  Total      -0.10849    -0.10849    -0.06542     0.00000    -0.00000     0.00000
  in kB      -0.30411    -0.30411    -0.18338     0.00000    -0.00000     0.00000

 VOLUME and BASIS-vectors are now :
  energy-cutoff  :      450.00
  volume of cell :      571.57
      direct lattice vectors                 reciprocal lattice vectors
     8.130228106  0.000000000  0.000000000     0.122997779  0.071012801  0.000000000
    -4.065114053  7.040984078  0.000000000     0.000000000  0.142025602  0.000000000
     0.000000000  0.000000000  9.984581369     0.000000000  0.000000000  0.100154424

  length of vectors
     8.130228106  8.130228106  9.984581369     0.142025602  0.142025602  0.100154424

 FORCES acting on ions
    electron-ion (+dipol)            ewald-force                    non-local-force                 convergence-correction
   0.127E+02 0.732E+01 0.962E+01   -.127E+02 -.733E+01 -.965E+01   0.100E+00 0.578E-01 0.372E-01   -.159E-03 -.916E-04 0.723E-02
   -.127E+02 -.732E+01 -.962E+01   0.127E+02 0.733E+01 0.965E+01   -.100E+00 -.578E-01 -.372E-01   0.159E-03 0.916E-04 -.723E-02
   -.127E+02 0.732E+01 0.962E+01   0.127E+02 -.733E+01 -.965E+01   -.100E+00 0.578E-01 0.372E-01   0.159E-03 -.916E-04 0.723E-02
   0.127E+02 -.732E+01 -.962E+01   -.127E+02 0.733E+01 0.965E+01   0.100E+00 -.578E-01 -.372E-01   -.159E-03 0.916E-04 -.723E-02
   0.252E-05 -.146E+02 0.962E+01   0.112E-05 0.147E+02 -.965E+01   0.173E-17 -.116E+00 0.372E-01   0.119E-08 0.183E-03 0.723E-02
   -.286E-05 0.146E+02 -.962E+01   -.680E-06 -.147E+02 0.965E+01   -.347E-17 0.116E+00 -.372E-01   -.295E-09 -.183E-03 -.723E-02
   -.274E-05 0.212E+01 0.430E+01   -.680E-06 -.214E+01 -.430E+01   0.108E-18 0.160E-01 -.512E-02   -.424E-08 -.529E-02 0.682E-02
   0.881E-06 -.212E+01 -.430E+01   -.894E-05 0.214E+01 0.430E+01   0.217E-18 -.160E-01 0.512E-02   0.680E-08 0.529E-02 -.682E-02
   -.184E+01 -.106E+01 0.430E+01   0.185E+01 0.107E+01 -.430E+01   -.138E-01 -.799E-02 -.512E-02   0.458E-02 0.264E-02 0.682E-02
   0.184E+01 0.106E+01 -.430E+01   -.185E+01 -.107E+01 0.430E+01   0.138E-01 0.799E-02 0.512E-02   -.458E-02 -.264E-02 -.682E-02
   0.184E+01 -.106E+01 0.430E+01   -.185E+01 0.107E+01 -.430E+01   0.138E-01 -.799E-02 -.512E-02   -.458E-02 0.264E-02 0.682E-02
   -.184E+01 0.106E+01 -.430E+01   0.185E+01 -.107E+01 0.430E+01   -.138E-01 0.799E-02 0.512E-02   0.458E-02 -.264E-02 -.682E-02
   -.273E-05 0.136E-05 0.271E+01   -.680E-06 0.227E-05 -.267E+01   0.434E-18 -.759E-18 -.510E-01   0.250E-08 -.579E-07 0.702E-02
   0.869E-06 -.316E-05 -.271E+01   -.894E-05 -.933E-05 0.267E+01   -.293E-17 0.119E-17 0.510E-01   0.529E-10 0.422E-07 -.702E-02
   0.236E-05 -.179E-05 0.321E+01   0.116E-05 -.152E-06 -.327E+01   0.922E-18 -.542E-19 0.579E-01   -.250E-08 0.208E-07 0.437E-02
   -.274E-05 0.134E-05 -.321E+01   -.680E-06 0.228E-05 0.327E+01   -.469E-17 0.542E-19 -.579E-01   0.338E-08 -.584E-07 -.437E-02
   0.723E+00 0.417E+00 0.172E+01   -.740E+00 -.427E+00 -.172E+01   0.117E-01 0.673E-02 -.158E-02   -.185E-02 -.107E-02 0.280E-02
   -.723E+00 -.417E+00 -.172E+01   0.740E+00 0.427E+00 0.172E+01   -.117E-01 -.673E-02 0.158E-02   0.185E-02 0.107E-02 -.280E-02
   -.723E+00 0.417E+00 0.172E+01   0.740E+00 -.427E+00 -.172E+01   -.117E-01 0.673E-02 -.158E-02   0.185E-02 -.107E-02 0.280E-02
   0.723E+00 -.417E+00 -.172E+01   -.740E+00 0.427E+00 0.172E+01   0.117E-01 -.673E-02 0.158E-02   -.185E-02 0.107E-02 -.280E-02
   -.759E-06 -.835E+00 0.172E+01   0.327E-06 0.854E+00 -.172E+01   0.867E-18 -.135E-01 -.158E-02   0.101E-08 0.213E-02 0.280E-02
   0.750E-06 0.835E+00 -.172E+01   -.625E-06 -.854E+00 0.172E+01   0.000E+00 0.135E-01 0.158E-02   -.522E-09 -.213E-02 -.280E-02
   0.786E-06 0.581E+01 0.381E+01   -.433E-06 -.587E+01 -.386E+01   0.000E+00 0.115E+00 0.763E-01   0.128E-08 -.164E-03 0.287E-02
   -.759E-06 -.581E+01 -.381E+01   0.318E-06 0.587E+01 0.386E+01   0.000E+00 -.115E+00 -.763E-01   -.100E-08 0.164E-03 -.287E-02
   -.503E+01 -.290E+01 0.381E+01   0.508E+01 0.293E+01 -.386E+01   -.993E-01 -.573E-01 0.763E-01   0.142E-03 0.818E-04 0.287E-02
   0.503E+01 0.290E+01 -.381E+01   -.508E+01 -.293E+01 0.386E+01   0.993E-01 0.573E-01 -.763E-01   -.142E-03 -.818E-04 -.287E-02
   0.503E+01 -.290E+01 0.381E+01   -.508E+01 0.293E+01 -.386E+01   0.993E-01 -.573E-01 0.763E-01   -.142E-03 0.818E-04 0.287E-02
   -.503E+01 0.290E+01 -.381E+01   0.508E+01 -.293E+01 0.386E+01   -.993E-01 0.573E-01 -.763E-01   0.142E-03 -.818E-04 -.287E-02
   0.778E-06 -.353E-06 0.128E+01   -.433E-06 0.683E-06 -.131E+01   -.434E-18 -.173E-17 -.575E-02   -.298E-09 -.128E-07 0.167E-02
   -.764E-06 0.406E-06 -.128E+01   0.332E-06 -.655E-06 0.131E+01   -.173E-17 0.173E-17 0.575E-02   0.569E-09 0.939E-08 -.167E-02
   -.762E-06 0.408E-06 0.107E+01   0.329E-06 -.657E-06 -.107E+01   0.217E-17 0.000E+00 0.532E-02   0.151E-08 0.884E-08 0.266E-02
   0.751E-06 -.190E-06 -.107E+01   -.625E-06 0.175E-05 0.107E+01   -.173E-17 0.000E+00 -.532E-02   -.102E-08 -.241E-07 -.266E-02
   0.589E-06 0.309E-06 0.117E-10   0.233E-05 -.770E-06 -.911E-13   0.265E-22 0.000E+00 0.000E+00   -.418E-07 0.496E-10 -.133E-11
   -.311E-06 0.829E-06 -.534E-06   -.376E-05 0.274E-05 -.360E-05   0.000E+00 0.000E+00 0.000E+00   0.107E-08 -.247E-07 0.124E-07
   0.950E-08 0.309E-06 -.172E-10   -.158E-05 -.770E-06 0.830E-13   -.827E-23 0.000E+00 0.000E+00   0.403E-07 0.583E-10 0.258E-11
   -.652E-02 0.376E-02 0.335E+01   -.556E-07 -.770E-06 -.335E+01   -.821E-02 0.474E-02 -.282E-03   -.155E-03 0.895E-04 0.575E-02
   0.652E-02 -.376E-02 -.335E+01   0.233E-05 -.770E-06 0.335E+01   0.821E-02 -.474E-02 0.282E-03   0.155E-03 -.895E-04 -.575E-02
   0.164E-06 -.753E-02 0.335E+01   -.536E-06 -.493E-06 -.335E+01   0.108E-18 -.948E-02 -.282E-03   0.312E-08 -.179E-03 0.575E-02
   -.311E-06 0.753E-02 -.335E+01   -.376E-05 0.274E-05 0.335E+01   -.434E-18 0.948E-02 0.282E-03   -.170E-08 0.179E-03 -.575E-02
   0.652E-02 0.376E-02 0.335E+01   -.747E-06 -.770E-06 -.335E+01   0.821E-02 0.474E-02 -.282E-03   0.155E-03 0.895E-04 0.575E-02
   -.652E-02 -.376E-02 -.335E+01   -.158E-05 -.770E-06 0.335E+01   -.821E-02 -.474E-02 0.282E-03   -.155E-03 -.895E-04 -.575E-02
   -.311E-06 -.211E-06 0.534E-06   -.376E-05 -.428E-05 0.360E-05   -.265E-22 0.000E+00 0.000E+00   0.108E-08 0.248E-07 -.124E-07
   0.152E-06 0.253E-06 0.152E+02   -.536E-06 -.105E-05 -.153E+02   -.434E-18 -.173E-17 -.129E+00   -.286E-09 0.152E-07 0.109E-01
   -.298E-06 -.196E-06 -.152E+02   -.376E-05 -.428E-05 0.153E+02   0.434E-18 0.173E-17 0.129E+00   0.172E-08 0.244E-07 -.109E-01
   0.236E-06 0.309E-06 -.203E-11   -.556E-07 -.770E-06 0.462E-13   -.165E-23 0.000E+00 0.000E+00   -.252E-07 0.520E-10 0.126E-11
   0.165E-06 0.350E-06 0.885E-07   -.536E-06 -.493E-06 0.598E-06   0.000E+00 0.000E+00 0.000E+00   0.340E-09 -.147E-07 -.107E-07
   0.133E-06 0.309E-06 -.461E-10   -.747E-06 -.770E-06 0.426E-13   0.000E+00 0.000E+00 0.000E+00   0.248E-07 0.577E-10 0.194E-11
   0.188E-06 0.306E-06 -.101E-06   -.613E-06 -.120E-05 -.683E-06   0.000E+00 0.000E+00 0.000E+00   0.418E-09 0.173E-07 0.126E-07
   -.615E-05 0.113E-05 -.989E-07   -.137E-12 0.729E-13 -.639E-13   -.156E-16 0.278E-16 0.278E-16   0.211E-09 0.272E-08 0.191E-08

 POSITION                                       TOTAL-FORCE (eV/Angst)
      2.03256      5.86749      3.74422         0.073035      0.042167      0.016607
      2.03256      1.17350      6.24036        -0.073035     -0.042167     -0.016607
     -2.03256      5.86749      3.74422        -0.073035      0.042167      0.016607
      6.09767      1.17350      6.24036         0.073035     -0.042167     -0.016607
     -0.00000      2.34699      3.74422        -0.000000     -0.084334      0.016607
      4.06511      4.69399      6.24036         0.000000      0.084334     -0.016607
      4.06511      4.69399      1.24807         0.000000     -0.004445     -0.003631
     -0.00000      2.34699      8.73651         0.000000      0.004445      0.003631
      2.03256      1.17350      1.24807         0.003849      0.002222     -0.003631
      2.03256      5.86749      8.73651        -0.003849     -0.002222      0.003631
      6.09767      1.17350      1.24807        -0.003849      0.002222     -0.003631
     -2.03256      5.86749      8.73651         0.003849     -0.002222      0.003631
      0.00000      4.69399      1.24807         0.000000      0.000000     -0.006575
      4.06511      2.34699      8.73651         0.000000      0.000000      0.006575
      4.06511      2.34699      3.74422         0.000000      0.000000      0.003257
      0.00000      4.69399      6.24036         0.000000      0.000000     -0.003257
      2.03256      5.86749      1.24807        -0.006928     -0.004000      0.002714
      2.03256      1.17350      8.73651         0.006928      0.004000     -0.002714
     -2.03256      5.86749      1.24807         0.006928     -0.004000      0.002714
      6.09767      1.17350      8.73651        -0.006928      0.004000     -0.002714
     -0.00000      2.34699      1.24807         0.000000      0.008000      0.002714
      4.06511      4.69399      8.73651         0.000000     -0.008000     -0.002714
      4.06511      4.69399      3.74422        -0.000000      0.054820      0.030920
     -0.00000      2.34699      6.24036         0.000000     -0.054820     -0.030920
      2.03256      1.17350      3.74422        -0.047475     -0.027410      0.030920
      2.03256      5.86749      6.24036         0.047475      0.027410     -0.030920
      6.09767      1.17350      3.74422         0.047475     -0.027410      0.030920
     -2.03256      5.86749      6.24036        -0.047475      0.027410     -0.030920
      0.00000      4.69399      3.74422         0.000000      0.000000     -0.029563
      4.06511      2.34699      6.24036         0.000000      0.000000      0.029563
      4.06511      2.34699      1.24807         0.000000      0.000000      0.012201
      0.00000      4.69399      8.73651         0.000000      0.000000     -0.012201
      2.03256      3.52049      0.00000         0.000000      0.000000     -0.000000
      4.06511      0.00000      0.00000         0.000000      0.000000     -0.000000
     -2.03256      3.52049      0.00000         0.000000      0.000000     -0.000000
      2.03256      3.52049      2.49615        -0.014884      0.008593      0.005573
      2.03256      3.52049      7.48844         0.014884     -0.008593     -0.005573
      4.06511      0.00000      2.49615        -0.000000     -0.017186      0.005573
      4.06511      0.00000      7.48844         0.000000      0.017186     -0.005573
     -2.03256      3.52049      2.49615         0.014884      0.008593      0.005573
     -2.03256      3.52049      7.48844        -0.014884     -0.008593     -0.005573
      0.00000      0.00000      0.00000         0.000000      0.000000     -0.000000
      0.00000      0.00000      2.49615         0.000000      0.000000     -0.259224
      0.00000      0.00000      7.48844         0.000000      0.000000      0.259224
      2.03256      3.52049      4.99229         0.000000      0.000000     -0.000000
      4.06511      0.00000      4.99229         0.000000      0.000000     -0.000000
     -2.03256      3.52049      4.99229         0.000000      0.000000     -0.000000
      0.00000      0.00000      4.99229         0.000000      0.000000     -0.000000
    total drift:                               -0.000006      0.000001     -0.000000

  FREE ENERGIE OF THE ION-ELECTRON SYSTEM (eV)
  free  energy   TOTEN  =      -304.90735559 eV

  energy  without entropy=     -304.80977415  energy(sigma->0) =     -304.87482844