 vasp.6.1.1 19Jun20 (build Nov 30 2020 11:51:22) complex

 executed on             LinuxIFC date 2021.03.24  09:21:54

 INCAR:
 POTCAR:    PAW_PBE Mn 06Sep2000
 POTCAR:    PAW_PBE Ni 02Aug2007
 POTCAR:    PAW_PBE Ge 05Jan2001
 POTCAR:    PAW_PBE Fe 06Sep2000
 POTCAR:    PAW_PBE Mn 06Sep2000
   VRHFIN =Mn: d6 s1

   TITEL  = PAW_PBE Mn 06Sep2000
   POMASS =   54.938; ZVAL   =    7.000    mass and valenz
   ENMAX  =  269.864; ENMIN  =  202.398 eV

   TITEL  = PAW_PBE Ni 02Aug2007
   POMASS =   58.690; ZVAL   =   10.000    mass and valenz
   ENMAX  =  269.532; ENMIN  =  202.149 eV

   TITEL  = PAW_PBE Ge 05Jan2001
   POMASS =   72.610; ZVAL   =    4.000    mass and valenz
   ENMAX  =  173.807; ENMIN  =  130.355 eV

   TITEL  = PAW_PBE Fe 06Sep2000
   POMASS =   55.847; ZVAL   =    8.000    mass and valenz
   ENMAX  =  267.882; ENMIN  =  200.911 eV

  PAW_PBE Mn 06Sep2000                  :
  PAW_PBE Ni 02Aug2007                  :
  PAW_PBE Ge 05Jan2001                  :
  PAW_PBE Fe 06Sep2000                  :

 POSCAR: MnNiGe_orth
  positions in direct lattice
  velocities in cartesian coordinates
 exchange correlation table for  LEXCH =        8
   RHO(1)=    0.500       N(1)  =     2000
   RHO(2)=  100.500       N(2)  =     4000

 ion  position               nearest neighbor table
   1  0.242  0.250  0.178-  41 2.44  45 2.44  32 2.49  44 2.67  40 2.67  16 2.70  18 2.71  29 2.77
                            25 2.77  24 2.84  28 2.84  14 3.07  10 3.07   7 3.11   3 3.11
   2  0.242  0.750  0.178-  41 2.44  45 2.44  33 2.49  44 2.67  40 2.67  17 2.70  19 2.71  29 2.77
                            25 2.77  24 2.84  28 2.84  14 3.07  10 3.07   8 3.11   4 3.11
   3  0.492  0.250  0.322-  42 2.44  46 2.44  34 2.49  45 2.67  41 2.67  18 2.70  20 2.71  30 2.77
                            26 2.77  25 2.84  29 2.84  11 3.07  48 3.07   1 3.11   5 3.11
   4  0.492  0.750  0.322-  42 2.44  46 2.44  35 2.49  45 2.67  41 2.67  19 2.70  21 2.71  30 2.77
                            26 2.77  25 2.84  29 2.84  11 3.07  48 3.07   2 3.11   6 3.11
   5  0.742  0.250  0.178-  43 2.44  47 2.44  36 2.49  46 2.67  42 2.67  20 2.70  22 2.71  31 2.77
                            27 2.77  26 2.84  30 2.84  15 3.07  12 3.07   7 3.11   3 3.11
   6  0.742  0.750  0.178-  43 2.44  47 2.44  37 2.49  46 2.67  42 2.67  21 2.70  23 2.71  31 2.77
                            27 2.77  26 2.84  30 2.84  15 3.07  12 3.07   8 3.11   4 3.11
   7  0.992  0.250  0.322-  40 2.44  44 2.44  38 2.49  43 2.67  47 2.67  22 2.70  16 2.71  28 2.77
                            24 2.77  31 2.84  27 2.84  13 3.07   9 3.07   1 3.11   5 3.11
   8  0.992  0.750  0.322-  40 2.44  44 2.44  39 2.49  43 2.67  47 2.67  23 2.70  17 2.71  28 2.77
                            24 2.77  31 2.84  27 2.84  13 3.07   9 3.07   2 3.11   6 3.11
   9  0.008  0.000  0.678-  38 2.44  39 2.44  40 2.49  33 2.67  32 2.67  24 2.70  27 2.71  23 2.77
                            22 2.77  17 2.84  16 2.84   8 3.07   7 3.07  10 3.11  12 3.11
  10  0.258  0.000  0.822-  32 2.44  33 2.44  41 2.49  35 2.67  34 2.67  25 2.70  24 2.71  17 2.77
                            16 2.77  19 2.84  18 2.84   2 3.07   1 3.07  11 3.11   9 3.11
  11  0.508  0.000  0.678-  34 2.44  35 2.44  42 2.49  37 2.67  36 2.67  26 2.70  25 2.71  19 2.77
                            18 2.77  21 2.84  20 2.84   4 3.07   3 3.07  10 3.11  12 3.11
  12  0.758  0.000  0.822-  36 2.44  37 2.44  43 2.49  39 2.67  38 2.67  27 2.70  26 2.71  21 2.77
                            20 2.77  23 2.84  22 2.84   6 3.07   5 3.07  11 3.11   9 3.11
  13  0.008  0.500  0.678-  38 2.44  39 2.44  44 2.49  33 2.67  32 2.67  28 2.70  31 2.71  23 2.77
                            22 2.77  17 2.84  16 2.84   8 3.07   7 3.07  14 3.11  15 3.11
  14  0.258  0.500  0.822-  32 2.44  33 2.44  45 2.49  35 2.67  34 2.67  29 2.70  28 2.71  17 2.77
                            16 2.77  19 2.84  18 2.84   2 3.07   1 3.07  48 3.11  13 3.11
  15  0.758  0.500  0.822-  36 2.44  37 2.44  47 2.49  39 2.67  38 2.67  31 2.70  30 2.71  21 2.77
                            20 2.77  23 2.84  22 2.84   6 3.07   5 3.07  48 3.11  13 3.11
  16  0.177  0.250  0.553-  40 2.27  44 2.27  32 2.33  34 2.39  25 2.62  29 2.62   1 2.70   7 2.71
                            10 2.77  14 2.77  13 2.84   9 2.84
  17  0.177  0.750  0.553-  40 2.27  44 2.27  33 2.33  35 2.39  25 2.62  29 2.62   2 2.70   8 2.71
                            10 2.77  14 2.77  13 2.84   9 2.84
  18  0.427  0.250  0.947-  41 2.27  45 2.27  34 2.33  36 2.39  26 2.62  30 2.62   3 2.70   1 2.71
                            11 2.77  48 2.77  14 2.84  10 2.84
  19  0.427  0.750  0.947-  41 2.27  45 2.27  35 2.33  37 2.39  26 2.62  30 2.62   4 2.70   2 2.71
                            11 2.77  48 2.77  14 2.84  10 2.84
  20  0.677  0.250  0.553-  42 2.27  46 2.27  36 2.33  38 2.39  27 2.62  31 2.62   5 2.70   3 2.71
                            12 2.77  15 2.77  11 2.84  48 2.84
  21  0.677  0.750  0.553-  42 2.27  46 2.27  37 2.33  39 2.39  27 2.62  31 2.62   6 2.70   4 2.71
                            12 2.77  15 2.77  11 2.84  48 2.84
  22  0.927  0.250  0.947-  43 2.27  47 2.27  38 2.33  32 2.39  24 2.62  28 2.62   7 2.70   5 2.71
                             9 2.77  13 2.77  12 2.84  15 2.84
  23  0.927  0.750  0.947-  43 2.27  47 2.27  39 2.33  33 2.39  24 2.62  28 2.62   8 2.70   6 2.71
                             9 2.77  13 2.77  12 2.84  15 2.84
  24  0.073  0.000  0.053-  32 2.27  33 2.27  40 2.33  43 2.39  22 2.62  23 2.62   9 2.70  10 2.71
                             7 2.77   8 2.77   1 2.84   2 2.84
  25  0.323  0.000  0.447-  34 2.27  35 2.27  41 2.33  40 2.39  16 2.62  17 2.62  10 2.70  11 2.71
                             1 2.77   2 2.77   3 2.84   4 2.84
  26  0.573  0.000  0.053-  36 2.27  37 2.27  42 2.33  41 2.39  18 2.62  19 2.62  11 2.70  12 2.71
                             3 2.77   4 2.77   5 2.84   6 2.84
  27  0.823  0.000  0.447-  38 2.27  39 2.27  43 2.33  42 2.39  20 2.62  21 2.62  12 2.70   9 2.71
                             5 2.77   6 2.77   7 2.84   8 2.84
  28  0.073  0.500  0.053-  32 2.27  33 2.27  44 2.33  47 2.39  22 2.62  23 2.62  13 2.70  14 2.71
                             7 2.77   8 2.77   1 2.84   2 2.84
  29  0.323  0.500  0.447-  34 2.27  35 2.27  45 2.33  44 2.39  16 2.62  17 2.62  14 2.70  48 2.71
                             1 2.77   2 2.77   3 2.84   4 2.84
  30  0.573  0.500  0.053-  36 2.27  37 2.27  46 2.33  45 2.39  18 2.62  19 2.62  48 2.70  15 2.71
                             3 2.77   4 2.77   5 2.84   6 2.84
  31  0.823  0.500  0.447-  38 2.27  39 2.27  47 2.33  46 2.39  20 2.62  21 2.62  15 2.70  13 2.71
                             5 2.77   6 2.77   7 2.84   8 2.84
  32  0.125  0.250  0.878-  24 2.27  28 2.27  16 2.33  22 2.39  10 2.44  14 2.44   1 2.49  13 2.67
                             9 2.67
  33  0.125  0.750  0.878-  24 2.27  28 2.27  17 2.33  23 2.39  10 2.44  14 2.44   2 2.49  13 2.67
                             9 2.67
  34  0.375  0.250  0.622-  25 2.27  29 2.27  18 2.33  16 2.39  11 2.44  48 2.44   3 2.49  14 2.67
                            10 2.67
  35  0.375  0.750  0.622-  25 2.27  29 2.27  19 2.33  17 2.39  11 2.44  48 2.44   4 2.49  14 2.67
                            10 2.67
  36  0.625  0.250  0.878-  26 2.27  30 2.27  20 2.33  18 2.39  12 2.44  15 2.44   5 2.49  11 2.67
                            48 2.67
  37  0.625  0.750  0.878-  26 2.27  30 2.27  21 2.33  19 2.39  12 2.44  15 2.44   6 2.49  11 2.67
                            48 2.67
  38  0.875  0.250  0.622-  27 2.27  31 2.27  22 2.33  20 2.39   9 2.44  13 2.44   7 2.49  12 2.67
                            15 2.67
  39  0.875  0.750  0.622-  27 2.27  31 2.27  23 2.33  21 2.39   9 2.44  13 2.44   8 2.49  12 2.67
                            15 2.67
  40  0.125  0.000  0.378-  16 2.27  17 2.27  24 2.33  25 2.39   7 2.44   8 2.44   9 2.49   2 2.67
                             1 2.67
  41  0.375  0.000  0.122-  18 2.27  19 2.27  25 2.33  26 2.39   1 2.44   2 2.44  10 2.49   4 2.67
                             3 2.67
  42  0.625  0.000  0.378-  20 2.27  21 2.27  26 2.33  27 2.39   3 2.44   4 2.44  11 2.49   6 2.67
                             5 2.67
  43  0.875  0.000  0.122-  22 2.27  23 2.27  27 2.33  24 2.39   5 2.44   6 2.44  12 2.49   8 2.67
                             7 2.67
  44  0.125  0.500  0.378-  16 2.27  17 2.27  28 2.33  29 2.39   7 2.44   8 2.44  13 2.49   2 2.67
                             1 2.67
  45  0.375  0.500  0.122-  18 2.27  19 2.27  29 2.33  30 2.39   1 2.44   2 2.44  14 2.49   4 2.67
                             3 2.67
  46  0.625  0.500  0.378-  20 2.27  21 2.27  30 2.33  31 2.39   3 2.44   4 2.44  48 2.49   6 2.67
                             5 2.67
  47  0.875  0.500  0.122-  22 2.27  23 2.27  31 2.33  28 2.39   5 2.44   6 2.44  15 2.49   8 2.67
                             7 2.67
  48  0.508  0.500  0.678-  34 2.44  35 2.44  46 2.49  37 2.67  36 2.67  30 2.70  29 2.71  19 2.77
                            18 2.77  21 2.84  20 2.84   4 3.07   3 3.07  14 3.11  15 3.11

  LATTYP: Found a simple orthorhombic cell.
 ALAT       =     6.9125121812
 B/A-ratio  =     1.0555017973
 C/A-ratio  =     1.7085153923

  Lattice vectors:

 A1 = (   0.0000000000,   0.0000000000,  -6.9125121812)
 A2 = (   0.0000000000,  -7.2961690314,   0.0000000000)
 A3 = ( -11.8101334612,   0.0000000000,   0.0000000000)

Analysis of symmetry for initial positions (statically):
 Subroutine PRICEL returns:
 Original cell was already a primitive cell.

 Routine SETGRP: Setting up the symmetry group for a
 simple orthorhombic supercell.

 Subroutine GETGRP returns: Found  2 space group operations
 (whereof  2 operations were pure point group operations)
 out of a pool of  8 trial point group operations.

The static configuration has the point symmetry C_1h.

Analysis of symmetry for dynamics (positions and initial velocities):
 Subroutine PRICEL returns:
 Original cell was already a primitive cell.

 Routine SETGRP: Setting up the symmetry group for a
 simple orthorhombic supercell.

 Subroutine GETGRP returns: Found  2 space group operations
 (whereof  2 operations were pure point group operations)
 out of a pool of  8 trial point group operations.

The dynamic configuration has the point symmetry C_1h.

 Subroutine INISYM returns: Found  2 space group operations
 (whereof  2 operations are pure point group operations),
 and found     1 'primitive' translations

                                     Primitive cell

  volume of cell :     595.6424

  direct lattice vectors                    reciprocal lattice vectors
    11.810133461  0.000000000  0.000000000     0.084673048  0.000000000  0.000000000
     0.000000000  7.296169031  0.000000000     0.000000000  0.137058228  0.000000000
     0.000000000  0.000000000  6.912512181     0.000000000  0.000000000  0.144665206

  length of vectors
    11.810133461  7.296169031  6.912512181     0.084673048  0.137058228  0.144665206

  position of ions in fractional coordinates (direct lattice)
     0.241899997  0.250000000  0.178299993
     0.241899997  0.750000000  0.178299993
     0.491899997  0.250000000  0.321700007
[...]
     35       3.5663      2.00000
     36       3.5686      2.00000
     37       3.5692      2.00000
     38       3.5829      2.00000
     39       3.5856      2.00000
     40       3.6493      2.00000
     41       3.6539      2.00000
     42       3.7748      2.00000
     43       3.7766      2.00000
     44       3.8101      2.00000
     45       3.8118      2.00000
     46       3.8683      2.00000
     47       3.9286      2.00000
     48       3.9424      2.00000
     49       4.0516      2.00000
     50       4.2020      2.00000
     51       4.2062      2.00000
     52       4.2949      2.00000
     53       4.3363      2.00000
     54       4.3367      2.00000
     55       4.3397      2.00000
     56       4.3425      2.00000
     57       4.3455      2.00000
     58       4.3494      2.00000
     59       4.3716      2.00000
     60       4.3795      2.00000
[...]
    346      24.8733      0.00000
    347      24.8852      0.00000
    348      25.2132      0.00000
    349      25.2318      0.00000
    350      25.3126      0.00000
    351      25.3144      0.00000
    352      25.3225      0.00000
    353      25.3263      0.00000
    354      25.4764      0.00000
    355      25.5135      0.00000
    356      25.6346      0.00000
    357      25.6411      0.00000
    358      25.8733      0.00000
    359      25.8769      0.00000
    360      26.3083      0.00000

[...]

 k-point    60 :       0.5000    0.4286    0.4286
  band No.  band energies     occupation
      1      -3.3107      2.00000
      2      -3.3045      2.00000
      3      -2.9936      2.00000
      4      -2.9875      2.00000
      5      -2.9694      2.00000
      6      -2.9628      2.00000
      7      -2.6794      2.00000
      8      -2.6730      2.00000
      9      -1.8599      2.00000
     10      -1.8525      2.00000
     11      -1.7021      2.00000
     12      -1.6946      2.00000
     13      -1.6829      2.00000
     14      -1.6738      2.00000
     15      -1.5577      2.00000
     16      -1.5484      2.00000
     17       1.9458      2.00000
     18       1.9530      2.00000
     19       2.0548      2.00000
     20       2.0617      2.00000
     21       2.0719      2.00000
     22       2.0795      2.00000
     23       2.1735      2.00000
     24       2.1792      2.00000
     25       2.5124      2.00000
     26       2.5200      2.00000
     27       2.6451      2.00000
     28       2.6502      2.00000
     29       2.6697      2.00000
     30       2.6756      2.00000
     31       2.8874      2.00000
     32       2.8920      2.00000
     33       3.3572      2.00000
     34       3.3588      2.00000
     35       3.3994      2.00000
     36       3.4008      2.00000
     37       3.4226      2.00000
     38       3.4241      2.00000
     39       3.4865      2.00000
     40       3.4892      2.00000
     41       3.5681      2.00000
     42       3.5704      2.00000
     43       3.5728      2.00000
     44       3.5757      2.00000
     45       3.6463      2.00000
     46       3.6482      2.00000
     47       3.6971      2.00000
     48       3.6988      2.00000
     49       4.1206      2.00000
     50       4.1233      2.00000
     51       4.1543      2.00000
     52       4.1558      2.00000
     53       4.2004      2.00000
     54       4.2035      2.00000
     55       4.2474      2.00000
     56       4.2519      2.00000
     57       4.4141      2.00000
     58       4.4180      2.00000
     59       4.4709      2.00000
     60       4.4758      2.00000
[...]
    346      24.5967      0.00000
    347      24.9805      0.00000
    348      24.9892      0.00000
    349      25.0772      0.00000
    350      25.0857      0.00000
    351      25.1384      0.00000
    352      25.1479      0.00000
    353      25.3751      0.00000
    354      25.3851      0.00000
    355      25.4549      0.00000
    356      25.4595      0.00000
    357      25.7068      0.00000
    358      25.7130      0.00000
    359      25.8401      0.00000
    360      25.8420      0.00000

 soft charge-density along one line, spin component           1
         0         1         2         3         4         5         6         7         8         9
 total charge-density along one line

------------------------ aborting loop because EDIFF is reached ----------------------------------------

  FORCE on cell =-STRESS in cart. coord.  units (eV):
  Direction    XX          YY          ZZ          XY          YZ          ZX
  Alpha Z  1612.41941  1612.41941  1612.41941
  Ewald   -7710.75615 -7121.62276 -7585.58406    -0.00000     0.00000     0.12880
  Hartree  2054.55758  2334.61577  1958.28859    -0.00000    -0.00000    -0.33109
  E(xc)   -1640.92388 -1645.72714 -1641.30284     0.00000     0.00000    -0.05060
  Local    -292.74469 -1133.84203  -294.13997     0.00000     0.00000    -0.36829
  n-local  -266.42043  -248.55661  -248.06162     0.17001    -0.10641    -0.40009
  augment  3315.13616  3314.51986  3295.30976     0.00000    -0.00000     0.39802
  Kinetic  2905.42855  2906.99227  2906.73154    -0.62783     0.13280     0.58938
  Fock        0.00000     0.00000     0.00000     0.00000     0.00000     0.00000
  Total     -23.30345    18.79878     3.66080     0.00000     0.00000    -0.03387
  in kB     -62.68234    50.56554     9.84695     0.00000     0.00000    -0.09110

 VOLUME and BASIS-vectors are now :
  energy-cutoff  :      450.00
  volume of cell :      595.64
      direct lattice vectors                 reciprocal lattice vectors
    11.810133461  0.000000000  0.000000000     0.084673048  0.000000000  0.000000000
     0.000000000  7.296169031  0.000000000     0.000000000  0.137058228  0.000000000
     0.000000000  0.000000000  6.912512181     0.000000000  0.000000000  0.144665206

  length of vectors
    11.810133461  7.296169031  6.912512181     0.084673048  0.137058228  0.144665206

 FORCES acting on ions
    electron-ion (+dipol)            ewald-force                    non-local-force                 convergence-correction
   0.106E+02 0.105E+01 0.370E+02   -.109E+02 -.105E+01 -.369E+02   -.239E+00 0.831E-02 0.108E+00   0.118E-01 0.228E-02 0.647E-03
   0.106E+02 -.105E+01 0.370E+02   -.109E+02 0.105E+01 -.369E+02   -.239E+00 -.831E-02 0.108E+00   0.118E-01 -.228E-02 0.647E-03
   0.697E+01 0.511E+01 -.319E+02   -.726E+01 -.516E+01 0.317E+02   -.205E+00 0.169E-01 -.471E-01   0.203E-02 0.769E-02 0.274E-02
   0.697E+01 -.511E+01 -.319E+02   -.726E+01 0.516E+01 0.317E+02   -.205E+00 -.169E-01 -.471E-01   0.203E-02 -.769E-02 0.274E-02
   0.134E+01 0.133E+01 0.370E+02   -.162E+01 -.133E+01 -.369E+02   -.217E+00 -.115E-01 0.109E+00   -.997E-02 -.715E-03 0.187E-02
   0.134E+01 -.133E+01 0.370E+02   -.162E+01 0.133E+01 -.369E+02   -.217E+00 0.115E-01 0.109E+00   -.997E-02 0.715E-03 0.187E-02
   0.574E+01 0.289E+00 -.368E+02   -.601E+01 -.288E+00 0.367E+02   -.210E+00 0.526E-03 -.976E-01   -.372E-02 -.102E-03 -.122E-02
   0.574E+01 -.289E+00 -.368E+02   -.601E+01 0.288E+00 0.367E+02   -.210E+00 -.526E-03 -.976E-01   -.372E-02 0.102E-03 -.122E-02
   -.612E+01 0.859E-13 0.370E+02   0.639E+01 -.428E-13 -.369E+02   0.207E+00 0.000E+00 0.883E-01   -.194E-02 -.268E-13 0.419E-03
   -.127E+01 0.132E-12 -.377E+02   0.156E+01 0.144E-13 0.376E+02   0.188E+00 0.000E+00 -.101E+00   0.137E-01 0.118E-13 -.243E-02
   -.615E+01 0.358E-13 0.370E+02   0.639E+01 -.107E-13 -.369E+02   0.210E+00 0.000E+00 0.109E+00   0.121E-02 -.213E-13 0.488E-02
   -.109E+02 -.496E-13 -.377E+02   0.112E+02 -.274E-13 0.376E+02   0.209E+00 0.000E+00 -.820E-01   -.981E-02 0.119E-13 -.291E-02
   -.612E+01 0.308E-13 0.370E+02   0.639E+01 -.424E-13 -.369E+02   0.208E+00 0.000E+00 0.127E+00   0.139E-02 0.176E-13 0.205E-02
   0.401E+01 0.920E-12 -.393E+02   -.387E+01 0.134E-13 0.393E+02   0.238E+00 0.000E+00 -.118E+00   0.200E-01 0.319E-13 -.443E-02
   -.163E+02 0.118E-11 -.393E+02   0.167E+02 -.207E-13 0.393E+02   0.184E+00 0.000E+00 -.155E+00   -.185E-01 0.473E-13 -.272E-02
   0.814E+02 0.153E+01 -.408E+02   -.812E+02 -.153E+01 0.418E+02   -.105E+00 0.218E-02 -.465E+00   0.189E-01 0.177E-02 0.958E-03
   0.814E+02 -.153E+01 -.408E+02   -.812E+02 0.153E+01 0.418E+02   -.105E+00 -.218E-02 -.465E+00   0.189E-01 -.177E-02 0.958E-03
   0.822E+02 0.988E+01 0.322E+02   -.821E+02 -.995E+01 -.332E+02   -.964E-01 -.216E-02 0.437E+00   0.158E-01 0.132E-01 -.124E-01
   0.822E+02 -.988E+01 0.322E+02   -.821E+02 0.995E+01 -.332E+02   -.964E-01 0.216E-02 0.437E+00   0.158E-01 -.132E-01 -.124E-01
   0.609E+02 0.885E+01 -.373E+02   -.607E+02 -.891E+01 0.383E+02   -.128E+00 0.624E-01 -.437E+00   -.182E-01 0.599E-02 0.444E-02
   0.609E+02 -.885E+01 -.373E+02   -.607E+02 0.891E+01 0.383E+02   -.128E+00 -.624E-01 -.437E+00   -.182E-01 -.599E-02 0.444E-02
   0.719E+02 0.577E+00 0.411E+02   -.717E+02 -.591E+00 -.421E+02   -.120E+00 0.145E-01 0.455E+00   -.857E-02 -.142E-02 0.145E-02
   0.719E+02 -.577E+00 0.411E+02   -.717E+02 0.591E+00 -.421E+02   -.120E+00 -.145E-01 0.455E+00   -.857E-02 0.142E-02 0.145E-02
   -.728E+02 0.216E-12 -.418E+02   0.726E+02 0.426E-13 0.428E+02   0.114E+00 0.000E+00 -.468E+00   0.155E-02 0.464E-13 -.255E-02
   -.681E+02 0.655E-13 0.436E+02   0.679E+02 0.334E-13 -.446E+02   0.133E+00 0.000E+00 0.455E+00   0.840E-02 0.297E-13 0.527E-02
   -.776E+02 0.128E-12 -.438E+02   0.774E+02 0.528E-13 0.448E+02   0.113E+00 0.000E+00 -.458E+00   -.721E-02 0.644E-13 -.731E-02
   -.800E+02 0.756E-13 0.424E+02   0.799E+02 0.181E-13 -.434E+02   0.130E+00 0.000E+00 0.457E+00   -.190E-01 0.105E-13 0.138E-02
   -.723E+02 0.185E-13 -.419E+02   0.721E+02 0.427E-13 0.430E+02   0.110E+00 0.000E+00 -.491E+00   0.245E-02 0.796E-13 -.395E-03
   -.577E+02 -.303E-11 0.505E+02   0.575E+02 0.186E-13 -.515E+02   0.120E+00 0.000E+00 0.519E+00   0.226E-01 0.600E-13 0.122E-01
   -.815E+02 0.105E-11 -.538E+02   0.814E+02 0.381E-13 0.548E+02   0.176E+00 0.000E+00 -.450E+00   -.170E-01 0.863E-13 -.182E-01
   -.830E+02 -.626E-11 0.434E+02   0.828E+02 0.532E-14 -.444E+02   0.143E+00 0.000E+00 0.454E+00   -.214E-01 0.827E-13 -.132E-02
   -.323E+02 0.338E+00 0.152E+02   0.332E+02 -.340E+00 -.148E+02   -.777E+00 0.648E-02 -.799E+00   0.394E-02 0.680E-03 -.735E-03
   -.323E+02 -.338E+00 0.152E+02   0.332E+02 0.340E+00 -.148E+02   -.777E+00 -.648E-02 -.799E+00   0.394E-02 -.680E-03 -.735E-03
   -.273E+02 0.598E+01 -.141E+02   0.282E+02 -.607E+01 0.137E+02   -.606E+00 0.199E+00 0.850E+00   0.710E-02 0.721E-02 0.317E-02
   -.273E+02 -.598E+01 -.141E+02   0.282E+02 0.607E+01 0.137E+02   -.606E+00 -.199E+00 0.850E+00   0.710E-02 -.721E-02 0.317E-02
   -.386E+02 0.441E+01 0.121E+02   0.396E+02 -.444E+01 -.117E+02   -.840E+00 0.753E-01 -.859E+00   -.974E-02 0.395E-02 -.278E-02
   -.386E+02 -.441E+01 0.121E+02   0.396E+02 0.444E+01 -.117E+02   -.840E+00 -.753E-01 -.859E+00   -.974E-02 -.395E-02 -.278E-02
   -.361E+02 0.446E+00 -.153E+02   0.371E+02 -.450E+00 0.149E+02   -.778E+00 -.206E-03 0.795E+00   -.779E-02 -.242E-02 -.577E-03
   -.361E+02 -.446E+00 -.153E+02   0.371E+02 0.450E+00 0.149E+02   -.778E+00 0.206E-03 0.795E+00   -.779E-02 0.242E-02 -.577E-03
   0.354E+02 0.803E-14 0.156E+02   -.363E+02 0.207E-13 -.152E+02   0.772E+00 0.000E+00 -.796E+00   0.584E-02 -.811E-14 0.198E-02
   0.359E+02 0.323E-13 -.157E+02   -.368E+02 0.253E-13 0.154E+02   0.784E+00 0.000E+00 0.780E+00   0.548E-02 -.904E-14 -.362E-02
   0.320E+02 0.114E-12 0.165E+02   -.329E+02 -.143E-13 -.161E+02   0.785E+00 0.000E+00 -.800E+00   0.105E-02 -.680E-14 0.201E-02
   0.325E+02 -.153E-12 -.155E+02   -.335E+02 -.218E-13 0.151E+02   0.774E+00 0.000E+00 0.794E+00   -.550E-02 -.124E-13 -.290E-03
   0.358E+02 -.216E-13 0.157E+02   -.368E+02 0.231E-13 -.153E+02   0.782E+00 0.000E+00 -.799E+00   0.726E-02 0.418E-14 0.587E-03
   0.374E+02 -.891E-12 -.167E+02   -.383E+02 0.278E-13 0.164E+02   0.753E+00 0.000E+00 0.821E+00   0.812E-02 0.204E-14 -.352E-02
   0.284E+02 0.158E-11 0.212E+02   -.292E+02 -.108E-13 -.210E+02   0.656E+00 0.000E+00 -.608E+00   -.546E-02 0.256E-14 0.608E-02
   0.321E+02 0.620E-12 -.155E+02   -.331E+02 -.202E-13 0.152E+02   0.776E+00 0.000E+00 0.797E+00   -.321E-02 0.358E-14 0.119E-04
   -.700E+01 -.278E-11 0.424E+02   0.730E+01 0.230E-13 -.422E+02   0.390E-01 0.000E+00 -.191E+00   -.798E-03 0.548E-14 0.604E-02
   0.454E-01 0.269E-10 0.323E-01   -.178E-12 0.163E-12 0.426E-13   -.381E-01 0.000E+00 -.205E-01   -.792E-02 0.997E-12 -.117E-01

 POSITION                                       TOTAL-FORCE (eV/Angst)
      2.85687      1.82404      1.23250        -0.496079      0.005458      0.152341
      2.85687      5.47213      1.23250        -0.496079     -0.005458      0.152341
      5.80940      1.82404      2.22376        -0.487164     -0.031076     -0.167374
      5.80940      5.47213      2.22376        -0.487164      0.031076     -0.167374
      8.76194      1.82404      1.23250        -0.499033     -0.008386      0.160628
      8.76194      5.47213      1.23250        -0.499033      0.008386      0.160628
     11.71447      1.82404      2.22376        -0.486076      0.001189     -0.154498
     11.71447      5.47213      2.22376        -0.486076     -0.001189     -0.154498
      0.09566      0.00000      4.68876         0.480444      0.000000      0.140679
      3.04820      0.00000      5.68001         0.493664      0.000000     -0.160751
      6.00073      0.00000      4.68876         0.453717      0.000000      0.155983
      8.95326      0.00000      5.68001         0.483578      0.000000     -0.145962
      0.09566      3.64808      4.68876         0.481468      0.000000      0.163573
      3.04820      3.64808      5.68001         0.398746      0.000000     -0.154821
      8.95326      3.64808      5.68001         0.535357      0.000000     -0.156990
      2.08685      1.82404      3.82469         0.096357      0.005004      0.550782
      2.08685      5.47213      3.82469         0.096357     -0.005004      0.550782
      5.03938      1.82404      6.54408         0.087644     -0.051876     -0.554410
      5.03938      5.47213      6.54408         0.087644      0.051876     -0.554410
      7.99192      1.82404      3.82469         0.107554      0.001652      0.549693
      7.99192      5.47213      3.82469         0.107554     -0.001652      0.549693
     10.94445      1.82404      6.54408         0.088061     -0.000937     -0.549832
     10.94445      5.47213      6.54408         0.088061      0.000937     -0.549832
      0.86568      0.00000      0.36844        -0.086256      0.000000      0.550706
      3.81822      0.00000      3.08782        -0.083320      0.000000     -0.564071
      6.77075      0.00000      0.36844        -0.109353      0.000000      0.553418
      9.72328      0.00000      3.08782        -0.065880      0.000000     -0.553377
      0.86568      3.64808      0.36844        -0.077865      0.000000      0.533846
      3.81822      3.64808      3.08782        -0.110206      0.000000     -0.498201
      6.77075      3.64808      0.36844        -0.007179      0.000000      0.582063
      9.72328      3.64808      3.08782        -0.100793      0.000000     -0.525157
      1.47922      1.82404      6.07126         0.158674      0.005672     -0.433510
      1.47922      5.47213      6.07126         0.158674     -0.005672     -0.433510
      4.43175      1.82404      4.29751         0.297744      0.116787      0.485093
      4.43175      5.47213      4.29751         0.297744     -0.116787      0.485093
      7.38429      1.82404      6.07126         0.113728      0.049784     -0.460227
      7.38429      5.47213      6.07126         0.113728     -0.049784     -0.460227
     10.33682      1.82404      4.29751         0.153675     -0.006741      0.432653
     10.33682      5.47213      4.29751         0.153675      0.006741      0.432653
      1.47331      0.00000      2.61500        -0.153758      0.000000     -0.438198
      4.42585      0.00000      0.84125        -0.144609      0.000000      0.415678
      7.37838      0.00000      2.61500        -0.168937      0.000000     -0.418595
     10.33091      0.00000      0.84125        -0.159023      0.000000      0.442135
      1.47331      3.64808      2.61500        -0.149452      0.000000     -0.430467
      4.42585      3.64808      0.84125        -0.139587      0.000000      0.448870
      7.37838      3.64808      2.61500        -0.228621      0.000000     -0.377409
     10.33091      3.64808      0.84125        -0.159999      0.000000      0.429067
      6.00073      3.64808      4.68876         0.347694      0.000000     -0.014697
    total drift:                               -0.000599      0.000000      0.000134

  FREE ENERGIE OF THE ION-ELECTRON SYSTEM (eV)
  free  energy   TOTEN  =      -301.55252348 eV

  energy  without entropy=     -301.54584824  energy(sigma->0) =     -301.55029840