 vasp.6.1.1 19Jun20 (build Nov 30 2020 11:51:22) complex

 executed on             LinuxIFC date 2021.03.26  16:55:40

 INCAR:
 POTCAR:    PAW_PBE Mn 06Sep2000
 POTCAR:    PAW_PBE Ni 02Aug2007
 POTCAR:    PAW_PBE Ge 05Jan2001
 POTCAR:    PAW_PBE Fe 06Sep2000
 POTCAR:    PAW_PBE Mn 06Sep2000
   VRHFIN =Mn: d6 s1

   TITEL  = PAW_PBE Mn 06Sep2000
   POMASS =   54.938; ZVAL   =    7.000    mass and valenz
   ENMAX  =  269.864; ENMIN  =  202.398 eV

   TITEL  = PAW_PBE Ni 02Aug2007
   POMASS =   58.690; ZVAL   =   10.000    mass and valenz
   ENMAX  =  269.532; ENMIN  =  202.149 eV

   TITEL  = PAW_PBE Ge 05Jan2001
   POMASS =   72.610; ZVAL   =    4.000    mass and valenz
   ENMAX  =  173.807; ENMIN  =  130.355 eV

   TITEL  = PAW_PBE Fe 06Sep2000
   POMASS =   55.847; ZVAL   =    8.000    mass and valenz
   ENMAX  =  267.882; ENMIN  =  200.911 eV

  PAW_PBE Mn 06Sep2000                  :
  PAW_PBE Ni 02Aug2007                  :
  PAW_PBE Ge 05Jan2001                  :
  PAW_PBE Fe 06Sep2000                  :

 POSCAR: MnNiGe_orth
  positions in direct lattice
  velocities in cartesian coordinates
 exchange correlation table for  LEXCH =        8
   RHO(1)=    0.500       N(1)  =     2000
   RHO(2)=  100.500       N(2)  =     4000

 ion  position               nearest neighbor table
   1  0.242  0.250  0.178-  41 2.45  45 2.45  32 2.50  44 2.68  40 2.68  16 2.71  18 2.72  29 2.78
                            25 2.78  24 2.85  28 2.85  14 3.08  10 3.08   7 3.13   3 3.13
   2  0.242  0.750  0.178-  41 2.45  45 2.45  33 2.50  44 2.68  40 2.68  17 2.71  19 2.72  29 2.78
                            25 2.78  24 2.85  28 2.85  14 3.08  10 3.08   8 3.13   4 3.13
   3  0.492  0.250  0.322-  42 2.45  46 2.45  34 2.50  45 2.68  41 2.68  18 2.71  20 2.72  30 2.78
                            26 2.78  25 2.85  29 2.85  11 3.08  48 3.08   1 3.13   5 3.13
   4  0.492  0.750  0.322-  42 2.45  46 2.45  35 2.50  45 2.68  41 2.68  19 2.71  21 2.72  30 2.78
                            26 2.78  25 2.85  29 2.85  11 3.08  48 3.08   2 3.13   6 3.13
   5  0.742  0.250  0.178-  43 2.45  47 2.45  36 2.50  46 2.68  42 2.68  20 2.71  22 2.72  31 2.78
                            27 2.78  26 2.85  30 2.85  15 3.08  12 3.08   7 3.13   3 3.13
   6  0.742  0.750  0.178-  43 2.45  47 2.45  37 2.50  46 2.68  42 2.68  21 2.71  23 2.72  31 2.78
                            27 2.78  26 2.85  30 2.85  15 3.08  12 3.08   8 3.13   4 3.13
   7  0.992  0.250  0.322-  40 2.45  44 2.45  38 2.50  43 2.68  47 2.68  22 2.71  16 2.72  28 2.78
                            24 2.78  31 2.85  27 2.85  13 3.08   9 3.08   1 3.13   5 3.13
   8  0.992  0.750  0.322-  40 2.45  44 2.45  39 2.50  43 2.68  47 2.68  23 2.71  17 2.72  28 2.78
                            24 2.78  31 2.85  27 2.85  13 3.08   9 3.08   2 3.13   6 3.13
   9  0.008  0.000  0.678-  38 2.45  39 2.45  40 2.50  33 2.68  32 2.68  24 2.71  27 2.72  23 2.78
                            22 2.78  17 2.85  16 2.85   8 3.08   7 3.08  10 3.13  12 3.13
  10  0.258  0.000  0.822-  32 2.45  33 2.45  41 2.50  35 2.68  34 2.68  25 2.71  24 2.72  17 2.78
                            16 2.78  19 2.85  18 2.85   2 3.08   1 3.08  11 3.13   9 3.13
  11  0.508  0.000  0.678-  34 2.45  35 2.45  42 2.50  37 2.68  36 2.68  26 2.71  25 2.72  19 2.78
                            18 2.78  21 2.85  20 2.85   4 3.08   3 3.08  10 3.13  12 3.13
  12  0.758  0.000  0.822-  36 2.45  37 2.45  43 2.50  39 2.68  38 2.68  27 2.71  26 2.72  21 2.78
                            20 2.78  23 2.85  22 2.85   6 3.08   5 3.08  11 3.13   9 3.13
  13  0.008  0.500  0.678-  38 2.45  39 2.45  44 2.50  33 2.68  32 2.68  28 2.71  31 2.72  23 2.78
                            22 2.78  17 2.85  16 2.85   8 3.08   7 3.08  14 3.13  15 3.13
  14  0.258  0.500  0.822-  32 2.45  33 2.45  45 2.50  35 2.68  34 2.68  29 2.71  28 2.72  17 2.78
                            16 2.78  19 2.85  18 2.85   2 3.08   1 3.08  48 3.13  13 3.13
  15  0.758  0.500  0.822-  36 2.45  37 2.45  47 2.50  39 2.68  38 2.68  31 2.71  30 2.72  21 2.78
                            20 2.78  23 2.85  22 2.85   6 3.08   5 3.08  48 3.13  13 3.13
  16  0.177  0.250  0.553-  40 2.28  44 2.28  32 2.34  34 2.40  25 2.63  29 2.63   1 2.71   7 2.72
                            10 2.78  14 2.78  13 2.85   9 2.85
  17  0.177  0.750  0.553-  40 2.28  44 2.28  33 2.34  35 2.40  25 2.63  29 2.63   2 2.71   8 2.72
                            10 2.78  14 2.78  13 2.85   9 2.85
  18  0.427  0.250  0.947-  41 2.28  45 2.28  34 2.34  36 2.40  26 2.63  30 2.63   3 2.71   1 2.72
                            11 2.78  48 2.78  14 2.85  10 2.85
  19  0.427  0.750  0.947-  41 2.28  45 2.28  35 2.34  37 2.40  26 2.63  30 2.63   4 2.71   2 2.72
                            11 2.78  48 2.78  14 2.85  10 2.85
  20  0.677  0.250  0.553-  42 2.28  46 2.28  36 2.34  38 2.40  27 2.63  31 2.63   5 2.71   3 2.72
                            12 2.78  15 2.78  11 2.85  48 2.85
  21  0.677  0.750  0.553-  42 2.28  46 2.28  37 2.34  39 2.40  27 2.63  31 2.63   6 2.71   4 2.72
                            12 2.78  15 2.78  11 2.85  48 2.85
  22  0.927  0.250  0.947-  43 2.28  47 2.28  38 2.34  32 2.40  24 2.63  28 2.63   7 2.71   5 2.72
                             9 2.78  13 2.78  12 2.85  15 2.85
  23  0.927  0.750  0.947-  43 2.28  47 2.28  39 2.34  33 2.40  24 2.63  28 2.63   8 2.71   6 2.72
                             9 2.78  13 2.78  12 2.85  15 2.85
  24  0.073  0.000  0.053-  32 2.28  33 2.28  40 2.34  43 2.40  22 2.63  23 2.63   9 2.71  10 2.72
                             7 2.78   8 2.78   1 2.85   2 2.85
  25  0.323  0.000  0.447-  34 2.28  35 2.28  41 2.34  40 2.40  16 2.63  17 2.63  10 2.71  11 2.72
                             1 2.78   2 2.78   3 2.85   4 2.85
  26  0.573  0.000  0.053-  36 2.28  37 2.28  42 2.34  41 2.40  18 2.63  19 2.63  11 2.71  12 2.72
                             3 2.78   4 2.78   5 2.85   6 2.85
  27  0.823  0.000  0.447-  38 2.28  39 2.28  43 2.34  42 2.40  20 2.63  21 2.63  12 2.71   9 2.72
                             5 2.78   6 2.78   7 2.85   8 2.85
  28  0.073  0.500  0.053-  32 2.28  33 2.28  44 2.34  47 2.40  22 2.63  23 2.63  13 2.71  14 2.72
                             7 2.78   8 2.78   1 2.85   2 2.85
  29  0.323  0.500  0.447-  34 2.28  35 2.28  45 2.34  44 2.40  16 2.63  17 2.63  14 2.71  48 2.72
                             1 2.78   2 2.78   3 2.85   4 2.85
  30  0.573  0.500  0.053-  36 2.28  37 2.28  46 2.34  45 2.40  18 2.63  19 2.63  48 2.71  15 2.72
                             3 2.78   4 2.78   5 2.85   6 2.85
  31  0.823  0.500  0.447-  38 2.28  39 2.28  47 2.34  46 2.40  20 2.63  21 2.63  15 2.71  13 2.72
                             5 2.78   6 2.78   7 2.85   8 2.85
  32  0.125  0.250  0.878-  24 2.28  28 2.28  16 2.34  22 2.40  10 2.45  14 2.45   1 2.50  13 2.68
                             9 2.68
  33  0.125  0.750  0.878-  24 2.28  28 2.28  17 2.34  23 2.40  10 2.45  14 2.45   2 2.50  13 2.68
                             9 2.68
  34  0.375  0.250  0.622-  25 2.28  29 2.28  18 2.34  16 2.40  11 2.45  48 2.45   3 2.50  14 2.68
                            10 2.68
  35  0.375  0.750  0.622-  25 2.28  29 2.28  19 2.34  17 2.40  11 2.45  48 2.45   4 2.50  14 2.68
                            10 2.68
  36  0.625  0.250  0.878-  26 2.28  30 2.28  20 2.34  18 2.40  12 2.45  15 2.45   5 2.50  11 2.68
                            48 2.68
  37  0.625  0.750  0.878-  26 2.28  30 2.28  21 2.34  19 2.40  12 2.45  15 2.45   6 2.50  11 2.68
                            48 2.68
  38  0.875  0.250  0.622-  27 2.28  31 2.28  22 2.34  20 2.40   9 2.45  13 2.45   7 2.50  12 2.68
                            15 2.68
  39  0.875  0.750  0.622-  27 2.28  31 2.28  23 2.34  21 2.40   9 2.45  13 2.45   8 2.50  12 2.68
                            15 2.68
  40  0.125  0.000  0.378-  16 2.28  17 2.28  24 2.34  25 2.40   7 2.45   8 2.45   9 2.50   2 2.68
                             1 2.68
  41  0.375  0.000  0.122-  18 2.28  19 2.28  25 2.34  26 2.40   1 2.45   2 2.45  10 2.50   4 2.68
                             3 2.68
  42  0.625  0.000  0.378-  20 2.28  21 2.28  26 2.34  27 2.40   3 2.45   4 2.45  11 2.50   6 2.68
                             5 2.68
  43  0.875  0.000  0.122-  22 2.28  23 2.28  27 2.34  24 2.40   5 2.45   6 2.45  12 2.50   8 2.68
                             7 2.68
  44  0.125  0.500  0.378-  16 2.28  17 2.28  28 2.34  29 2.40   7 2.45   8 2.45  13 2.50   2 2.68
                             1 2.68
  45  0.375  0.500  0.122-  18 2.28  19 2.28  29 2.34  30 2.40   1 2.45   2 2.45  14 2.50   4 2.68
                             3 2.68
  46  0.625  0.500  0.378-  20 2.28  21 2.28  30 2.34  31 2.40   3 2.45   4 2.45  48 2.50   6 2.68
                             5 2.68
  47  0.875  0.500  0.122-  22 2.28  23 2.28  31 2.34  28 2.40   5 2.45   6 2.45  15 2.50   8 2.68
                             7 2.68
  48  0.508  0.500  0.678-  34 2.45  35 2.45  46 2.50  37 2.68  36 2.68  30 2.71  29 2.72  19 2.78
                            18 2.78  21 2.85  20 2.85   4 3.08   3 3.08  14 3.13  15 3.13

  LATTYP: Found a simple orthorhombic cell.
 ALAT       =     6.9389722303
 B/A-ratio  =     1.0555008508
 C/A-ratio  =     1.7085169161

  Lattice vectors:

 A1 = (   0.0000000000,   0.0000000000,  -6.9389722303)
 A2 = (   0.0000000000,  -7.3240910927,   0.0000000000)
 A3 = ( -11.8553514354,   0.0000000000,   0.0000000000)

Analysis of symmetry for initial positions (statically):
 Subroutine PRICEL returns:
 Original cell was already a primitive cell.

 Routine SETGRP: Setting up the symmetry group for a
 simple orthorhombic supercell.

 Subroutine GETGRP returns: Found  2 space group operations
 (whereof  2 operations were pure point group operations)
 out of a pool of  8 trial point group operations.

The static configuration has the point symmetry C_1h.

Analysis of symmetry for dynamics (positions and initial velocities):
 Subroutine PRICEL returns:
 Original cell was already a primitive cell.

[...]

The dynamic configuration has the point symmetry C_1h.

Analysis of structural, dynamic, and magnetic symmetry:
 Subroutine PRICEL returns:
 Original cell was already a primitive cell.

 Routine SETGRP: Setting up the symmetry group for a
 simple orthorhombic supercell.

 Subroutine GETGRP returns: Found  2 space group operations
 (whereof  2 operations were pure point group operations)
 out of a pool of  8 trial point group operations.

The magnetic configuration has the point symmetry C_1h.

 Subroutine INISYM returns: Found  2 space group operations
 (whereof  2 operations are pure point group operations),
 and found     1 'primitive' translations

                                     Primitive cell

  volume of cell :     602.5087

  direct lattice vectors                    reciprocal lattice vectors
    11.855351435  0.000000000  0.000000000     0.084350093  0.000000000  0.000000000
     0.000000000  7.324091093  0.000000000     0.000000000  0.136535713  0.000000000
     0.000000000  0.000000000  6.938972230     0.000000000  0.000000000  0.144113561

  length of vectors
    11.855351435  7.324091093  6.938972230     0.084350093  0.136535713  0.144113561

[...]

# of ion       s       p       d       tot
    1        0.270   0.319   5.100   5.689
    2        0.270   0.319   5.100   5.689
    3        0.270   0.318   5.098   5.687
    4        0.270   0.318   5.098   5.687
    5        0.270   0.319   5.100   5.689
    6        0.270   0.319   5.100   5.689
    7        0.270   0.319   5.100   5.689
    8        0.270   0.319   5.100   5.689
    9        0.270   0.319   5.099   5.688
   10        0.270   0.319   5.100   5.689
   11        0.271   0.319   5.100   5.690
   12        0.270   0.319   5.099   5.688
   13        0.270   0.319   5.099   5.688
   14        0.270   0.318   5.097   5.686
   15        0.270   0.318   5.100   5.688
   16        0.471   0.580   8.461   9.513
   17        0.471   0.580   8.461   9.513
   18        0.471   0.576   8.463   9.509
   19        0.471   0.576   8.463   9.509
   20        0.471   0.577   8.461   9.509
   21        0.471   0.577   8.461   9.509
   22        0.472   0.580   8.462   9.513
   23        0.472   0.580   8.462   9.513
   24        0.471   0.580   8.462   9.513
   25        0.471   0.578   8.464   9.513
   26        0.471   0.580   8.462   9.513
   27        0.472   0.579   8.462   9.513
   28        0.472   0.580   8.462   9.513
   29        0.471   0.577   8.461   9.509
   30        0.471   0.576   8.461   9.508
   31        0.472   0.580   8.461   9.513
   32        1.109   1.395   0.150   2.653
   33        1.109   1.395   0.150   2.653
   34        1.108   1.383   0.150   2.641
   35        1.108   1.383   0.150   2.641
   36        1.109   1.387   0.150   2.646
   37        1.109   1.387   0.150   2.646
   38        1.109   1.395   0.150   2.653
   39        1.109   1.395   0.150   2.653
   40        1.109   1.395   0.150   2.653
   41        1.109   1.394   0.150   2.653
   42        1.109   1.394   0.150   2.652
   43        1.109   1.394   0.150   2.653
   44        1.109   1.394   0.150   2.653
   45        1.109   1.395   0.149   2.653
   46        1.108   1.383   0.150   2.642
   47        1.109   1.394   0.150   2.653
   48        0.342   0.412   6.302   7.056
tot         29.670  36.714 220.577 286.961

 magnetization (x)

[...]

  FORCE on cell =-STRESS in cart. coord.  units (eV):
  Direction    XX          YY          ZZ          XY          YZ          ZX
  Alpha Z  1594.04398  1594.04398  1594.04398
  Ewald   -7681.35472 -7094.46458 -7556.65785     0.00000     0.00000     0.12828
  Hartree  2074.98863  2349.64584  1975.81260    -0.00000    -0.00000    -1.09638
  E(xc)   -1662.05767 -1664.54777 -1662.07241     0.00000     0.00000     0.14161
  Local    -325.23460 -1139.63630  -317.93437     0.00000     0.00000     2.09352
  n-local  -232.43312  -209.70247  -213.72368    -0.04466    -0.82878     0.57803
  augment  3339.26639  3320.63002  3310.63258    -0.00000    -0.00000    -0.86697
  Kinetic  2914.51569  2880.09500  2892.72557     0.04099     0.35873    -1.09768
  Fock        0.00000     0.00000     0.00000     0.00000     0.00000     0.00000
  Total      21.73458    36.06372    22.82642     0.00000     0.00000    -0.11959
  in kB      57.79611    95.89982    60.69949     0.00000     0.00000    -0.31800

 VOLUME and BASIS-vectors are now :
  energy-cutoff  :      450.00
  volume of cell :      602.51
      direct lattice vectors                 reciprocal lattice vectors
    11.855351435  0.000000000  0.000000000     0.084350093  0.000000000  0.000000000
     0.000000000  7.324091093  0.000000000     0.000000000  0.136535713  0.000000000
     0.000000000  0.000000000  6.938972230     0.000000000  0.000000000  0.144113561

  length of vectors
    11.855351435  7.324091093  6.938972230     0.084350093  0.136535713  0.144113561

 FORCES acting on ions
    electron-ion (+dipol)            ewald-force                    non-local-force                 convergence-correction
   0.106E+02 0.106E+01 0.368E+02   -.108E+02 -.104E+01 -.366E+02   -.582E+00 -.822E-02 0.122E+00   -.156E-02 0.126E-02 -.146E-02
   0.106E+02 -.106E+01 0.368E+02   -.108E+02 0.104E+01 -.366E+02   -.582E+00 0.822E-02 0.122E+00   -.156E-02 -.126E-02 -.146E-02
   0.703E+01 0.502E+01 -.318E+02   -.720E+01 -.512E+01 0.315E+02   -.599E+00 0.783E-01 -.133E-01   0.456E-02 0.244E-03 0.778E-03
   0.703E+01 -.502E+01 -.318E+02   -.720E+01 0.512E+01 0.315E+02   -.599E+00 -.783E-01 -.133E-01   0.456E-02 -.244E-03 0.778E-03
   0.145E+01 0.129E+01 0.368E+02   -.160E+01 -.132E+01 -.366E+02   -.617E+00 0.252E-01 0.121E+00   0.178E-02 -.647E-03 0.154E-02
   0.145E+01 -.129E+01 0.368E+02   -.160E+01 0.132E+01 -.366E+02   -.617E+00 -.252E-01 0.121E+00   0.178E-02 0.647E-03 0.154E-02
   0.581E+01 0.288E+00 -.367E+02   -.597E+01 -.286E+00 0.365E+02   -.602E+00 -.479E-02 -.110E+00   -.455E-02 -.175E-02 0.195E-02
   0.581E+01 -.288E+00 -.367E+02   -.597E+01 0.286E+00 0.365E+02   -.602E+00 0.479E-02 -.110E+00   -.455E-02 0.175E-02 0.195E-02
   -.618E+01 -.135E-12 0.368E+02   0.634E+01 0.229E-13 -.366E+02   0.599E+00 0.000E+00 0.116E+00   -.330E-02 -.633E-14 -.138E-02
   -.143E+01 -.340E-13 -.375E+02   0.155E+01 -.256E-13 0.373E+02   0.638E+00 0.000E+00 -.139E+00   -.255E-02 0.496E-13 -.142E-02
   -.618E+01 0.191E-12 0.368E+02   0.634E+01 0.111E-13 -.366E+02   0.643E+00 0.000E+00 0.113E+00   0.360E-02 0.123E-13 -.256E-03
   -.109E+02 -.999E-13 -.375E+02   0.111E+02 0.232E-13 0.373E+02   0.593E+00 0.000E+00 -.129E+00   0.218E-02 0.443E-13 -.195E-02
   -.618E+01 0.999E-13 0.368E+02   0.634E+01 0.896E-14 -.366E+02   0.612E+00 0.000E+00 0.119E+00   -.166E-02 -.854E-15 -.409E-03
   0.408E+01 0.101E-11 -.392E+02   -.384E+01 -.147E-13 0.390E+02   0.691E+00 0.000E+00 -.158E+00   -.973E-03 0.481E-13 -.169E-02
   -.164E+02 0.145E-11 -.392E+02   0.165E+02 0.277E-13 0.390E+02   0.563E+00 0.000E+00 -.143E+00   0.560E-03 0.435E-13 -.926E-03
   0.809E+02 0.153E+01 -.406E+02   -.806E+02 -.152E+01 0.415E+02   -.176E-01 -.113E-01 -.322E+00   -.494E-02 0.103E-02 0.501E-02
   0.809E+02 -.153E+01 -.406E+02   -.806E+02 0.152E+01 0.415E+02   -.176E-01 0.113E-01 -.322E+00   -.494E-02 -.103E-02 0.501E-02
   0.818E+02 0.986E+01 0.320E+02   -.814E+02 -.987E+01 -.329E+02   -.693E-01 0.294E-01 0.309E+00   0.144E-02 0.147E-02 -.213E-02
   0.818E+02 -.986E+01 0.320E+02   -.814E+02 0.987E+01 -.329E+02   -.693E-01 -.294E-01 0.309E+00   0.144E-02 -.147E-02 -.213E-02
   0.606E+02 0.880E+01 -.371E+02   -.602E+02 -.884E+01 0.380E+02   -.146E+00 0.448E-01 -.315E+00   0.659E-02 -.610E-03 -.126E-02
   0.606E+02 -.880E+01 -.371E+02   -.602E+02 0.884E+01 0.380E+02   -.146E+00 -.448E-01 -.315E+00   0.659E-02 0.610E-03 -.126E-02
   0.714E+02 0.594E+00 0.409E+02   -.711E+02 -.586E+00 -.418E+02   -.438E-01 -.657E-02 0.320E+00   -.369E-02 -.196E-02 -.128E-02
   0.714E+02 -.594E+00 0.409E+02   -.711E+02 0.586E+00 -.418E+02   -.438E-01 0.657E-02 0.320E+00   -.369E-02 0.196E-02 -.128E-02
   -.724E+02 -.247E-13 -.416E+02   0.721E+02 0.855E-13 0.425E+02   0.692E-01 0.000E+00 -.324E+00   -.683E-02 0.158E-12 -.332E-02
   -.677E+02 0.569E-13 0.433E+02   0.673E+02 0.589E-13 -.442E+02   0.118E+00 0.000E+00 0.346E+00   0.865E-03 0.119E-12 0.362E-02
   -.771E+02 0.228E-12 -.436E+02   0.768E+02 -.158E-13 0.445E+02   0.912E-01 0.000E+00 -.333E+00   0.593E-02 0.154E-12 0.806E-03
   -.795E+02 -.762E-13 0.421E+02   0.792E+02 -.166E-13 -.430E+02   -.325E-03 0.000E+00 0.341E+00   0.838E-03 0.117E-12 0.127E-02
   -.719E+02 0.104E-11 -.417E+02   0.716E+02 0.869E-13 0.426E+02   0.634E-01 0.000E+00 -.311E+00   -.270E-02 0.167E-12 -.239E-02
   -.574E+02 -.170E-11 0.502E+02   0.570E+02 0.410E-13 -.511E+02   0.151E+00 0.000E+00 0.366E+00   0.192E-03 0.120E-12 0.616E-02
   -.811E+02 0.257E-11 -.536E+02   0.807E+02 -.281E-13 0.544E+02   0.286E-01 0.000E+00 -.263E+00   0.632E-02 0.122E-12 0.155E-03
   -.825E+02 -.527E-11 0.431E+02   0.821E+02 -.311E-13 -.440E+02   0.849E-01 0.000E+00 0.297E+00   -.236E-02 0.128E-12 0.951E-03
   -.326E+02 0.332E+00 0.150E+02   0.329E+02 -.337E+00 -.147E+02   -.748E+00 -.332E-03 -.761E+00   -.933E-03 0.792E-04 -.174E-02
   -.326E+02 -.332E+00 0.150E+02   0.329E+02 0.337E+00 -.147E+02   -.748E+00 0.332E-03 -.761E+00   -.933E-03 -.792E-04 -.174E-02
   -.277E+02 0.600E+01 -.138E+02   0.280E+02 -.602E+01 0.136E+02   -.546E+00 0.220E+00 0.781E+00   -.456E-03 0.105E-02 0.119E-02
   -.277E+02 -.600E+01 -.138E+02   0.280E+02 0.602E+01 0.136E+02   -.546E+00 -.220E+00 0.781E+00   -.456E-03 -.105E-02 0.119E-02
   -.389E+02 0.438E+01 0.119E+02   0.393E+02 -.441E+01 -.116E+02   -.853E+00 0.107E+00 -.846E+00   0.306E-02 -.758E-04 -.257E-03
   -.389E+02 -.438E+01 0.119E+02   0.393E+02 0.441E+01 -.116E+02   -.853E+00 -.107E+00 -.846E+00   0.306E-02 0.758E-04 -.257E-03
   -.364E+02 0.454E+00 -.151E+02   0.368E+02 -.446E+00 0.148E+02   -.760E+00 0.773E-03 0.759E+00   -.969E-03 -.174E-02 -.885E-03
   -.364E+02 -.454E+00 -.151E+02   0.368E+02 0.446E+00 0.148E+02   -.760E+00 -.773E-03 0.759E+00   -.969E-03 0.174E-02 -.885E-03
   0.357E+02 -.844E-13 0.153E+02   -.360E+02 -.103E-13 -.151E+02   0.757E+00 0.000E+00 -.754E+00   -.417E-02 -.807E-14 0.190E-02
   0.362E+02 -.131E-12 -.155E+02   -.366E+02 0.278E-13 0.153E+02   0.751E+00 0.000E+00 0.750E+00   0.165E-02 0.418E-14 -.126E-02
   0.323E+02 -.485E-13 0.162E+02   -.327E+02 0.203E-13 -.160E+02   0.752E+00 0.000E+00 -.761E+00   0.361E-02 -.398E-14 0.351E-03
   0.329E+02 0.398E-13 -.153E+02   -.332E+02 0.276E-13 0.150E+02   0.747E+00 0.000E+00 0.757E+00   -.162E-02 0.777E-15 0.145E-02
   0.361E+02 -.131E-13 0.155E+02   -.365E+02 -.916E-14 -.152E+02   0.760E+00 0.000E+00 -.758E+00   -.210E-02 -.101E-13 0.117E-02
   0.376E+02 -.103E-11 -.165E+02   -.380E+02 0.284E-13 0.163E+02   0.746E+00 0.000E+00 0.768E+00   0.449E-03 -.368E-14 -.160E-02
   0.288E+02 0.148E-11 0.212E+02   -.290E+02 0.238E-13 -.209E+02   0.562E+00 0.000E+00 -.531E+00   0.308E-02 -.128E-13 0.308E-03
   0.324E+02 0.882E-12 -.153E+02   -.328E+02 0.277E-13 0.150E+02   0.751E+00 0.000E+00 0.762E+00   -.210E-02 0.105E-14 0.573E-03
   -.708E+01 -.207E-11 0.421E+02   0.725E+01 0.291E-13 -.419E+02   0.477E+00 0.000E+00 -.154E+00   0.199E-02 -.412E-14 -.644E-03
   -.849E-01 0.424E-10 -.694E-01   -.245E-12 -.880E-14 0.192E-12   0.832E-01 0.000E+00 0.656E-01   0.154E-02 0.235E-11 0.439E-02

 POSITION                                       TOTAL-FORCE (eV/Angst)
      2.86781      1.83102      1.23722        -0.779414      0.010193      0.312190
      2.86781      5.49307      1.23722        -0.779414     -0.010193      0.312190
      5.83165      1.83102      2.23227        -0.764311     -0.025683     -0.285203
      5.83165      5.49307      2.23227        -0.764311      0.025683     -0.285203
      8.79549      1.83102      1.23722        -0.765712     -0.002771      0.307406
      8.79549      5.49307      1.23722        -0.765712      0.002771      0.307406
     11.75932      1.83102      2.23227        -0.760585     -0.003901     -0.319080
     11.75932      5.49307      2.23227        -0.760585      0.003901     -0.319080
      0.09603      0.00000      4.70671         0.761610      0.000000      0.319596
      3.05987      0.00000      5.70175         0.751533      0.000000     -0.306137
      6.02370      0.00000      4.70671         0.806172      0.000000      0.285902
      8.98754      0.00000      5.70175         0.786011      0.000000     -0.305029
      0.09603      3.66205      4.70671         0.774007      0.000000      0.324453
      3.05987      3.66205      5.70175         0.922521      0.000000     -0.360109
      8.98754      3.66205      5.70175         0.730533      0.000000     -0.341959
      2.09484      1.83102      3.83933         0.278231     -0.002104      0.580193
      2.09484      5.49307      3.83933         0.278231      0.002104      0.580193
      5.05868      1.83102      6.56912         0.239635      0.017187     -0.598641
      5.05868      5.49307      6.56912         0.239635     -0.017187     -0.598641
      8.02252      1.83102      3.83933         0.213770     -0.004694      0.557856
      8.02252      5.49307      3.83933         0.213770      0.004694      0.557856
     10.98635      1.83102      6.56912         0.269650     -0.001053     -0.580596
     10.98635      5.49307      6.56912         0.269650      0.001053     -0.580596
      0.86900      0.00000      0.36985        -0.261103      0.000000      0.583006
      3.83284      0.00000      3.09964        -0.270200      0.000000     -0.592269
      6.79667      0.00000      0.36985        -0.213249      0.000000      0.578306
      9.76051      0.00000      3.09964        -0.273878      0.000000     -0.573525
      0.86900      3.66205      0.36985        -0.266879      0.000000      0.583124
      3.83284      3.66205      3.09964        -0.203083      0.000000     -0.552133
      6.79667      3.66205      0.36985        -0.316444      0.000000      0.533371
      9.76051      3.66205      3.09964        -0.278178      0.000000     -0.584648
      1.48488      1.83102      6.09450        -0.397308     -0.005518     -0.483352
      1.48488      5.49307      6.09450        -0.397308      0.005518     -0.483352
      4.44872      1.83102      4.31396        -0.254737      0.197674      0.554054
      4.44872      5.49307      4.31396        -0.254737     -0.197674      0.554054
      7.41256      1.83102      6.09450        -0.495919      0.078513     -0.539953
      7.41256      5.49307      6.09450        -0.495919     -0.078513     -0.539953
     10.37640      1.83102      4.31396        -0.406400      0.006447      0.496165
     10.37640      5.49307      4.31396        -0.406400     -0.006447      0.496165
      1.47896      0.00000      2.62501         0.383084      0.000000     -0.493131
      4.44279      0.00000      0.84447         0.439036      0.000000      0.456081
      7.40663      0.00000      2.62501         0.394241      0.000000     -0.488982
     10.37047      0.00000      0.84447         0.405015      0.000000      0.487124
      1.47896      3.66205      2.62501         0.399915      0.000000     -0.486246
      4.44279      3.66205      0.84447         0.395359      0.000000      0.486287
      7.40663      3.66205      2.62501         0.334442      0.000000     -0.147461
     10.37047      3.66205      0.84447         0.395898      0.000000      0.489236
      6.02370      3.66205      4.70671         0.649837      0.000000      0.103065
    total drift:                               -0.000085      0.000000      0.000567

  FREE ENERGIE OF THE ION-ELECTRON SYSTEM (eV)
  free  energy   TOTEN  =      -312.58483058 eV

  energy  without entropy=     -312.61785844  energy(sigma->0) =     -312.59583987

 total charge

[...]

 magnetization (x)

# of ion       s       p       d       tot
    1        0.017   0.010   2.869   2.897
    2        0.017   0.010   2.869   2.897
    3        0.018   0.012   2.874   2.903
    4        0.018   0.012   2.874   2.903
    5        0.017   0.010   2.863   2.890
    6        0.017   0.010   2.863   2.890
    7        0.017   0.010   2.865   2.893
    8        0.017   0.010   2.865   2.893
    9        0.017   0.010   2.870   2.897
   10        0.017   0.010   2.867   2.894
   11        0.016   0.011   2.852   2.879
   12        0.017   0.011   2.868   2.896
   13        0.017   0.010   2.873   2.900
   14        0.017   0.011   2.868   2.897
   15        0.018   0.011   2.858   2.887
   16       -0.019  -0.042   0.162   0.101
   17       -0.019  -0.042   0.162   0.101
   18       -0.018  -0.040   0.144   0.086
   19       -0.018  -0.040   0.144   0.086
   20       -0.018  -0.040   0.158   0.100
   21       -0.018  -0.040   0.158   0.100
   22       -0.019  -0.042   0.160   0.100
   23       -0.019  -0.042   0.160   0.100
   24       -0.019  -0.041   0.157   0.097
   25       -0.018  -0.040   0.158   0.100
   26       -0.019  -0.043   0.155   0.094
   27       -0.018  -0.041   0.161   0.102
   28       -0.019  -0.042   0.158   0.097
   29       -0.018  -0.040   0.148   0.090
   30       -0.018  -0.040   0.150   0.093
   31       -0.019  -0.042   0.161   0.099
   32       -0.016  -0.110   0.003  -0.124
   33       -0.016  -0.110   0.003  -0.124
   34       -0.014  -0.101   0.001  -0.115
   35       -0.014  -0.101   0.001  -0.115
   36       -0.015  -0.103   0.002  -0.116
   37       -0.015  -0.103   0.002  -0.116
   38       -0.016  -0.110   0.003  -0.124
   39       -0.016  -0.110   0.003  -0.124
   40       -0.016  -0.111   0.003  -0.124
   41       -0.016  -0.110   0.003  -0.123
   42       -0.016  -0.109   0.003  -0.123
   43       -0.017  -0.110   0.003  -0.124
   44       -0.016  -0.111   0.003  -0.124
   45       -0.017  -0.110   0.003  -0.124
   46       -0.014  -0.102   0.000  -0.115
   47       -0.017  -0.111   0.003  -0.125
   48        0.009  -0.003   2.144   2.150
tot         -0.280  -2.222  47.674  45.172